23
Properties=species:S:1:pos:R:3 Coordinates=T from=T ORCA-job=T product_2=T pbc="F F F"
C       -2.50799213       2.48564314       1.04526215
C       -2.72031098       1.28991919       0.35630205
C       -1.70711516       0.72145193      -0.41845079
C       -0.47584752       1.37211431      -0.49345309
C       -0.26526307       2.58249534       0.19672898
C       -1.27360198       3.14084088       0.96798570
H       -1.11442495       4.07826021       1.50827801
H       -3.31231498       2.91317705       1.64863113
H       -3.69065307       0.79204534       0.42633146
H       -1.87704378      -0.21617246      -0.95364483
C        1.14130758       3.05844186      -0.06315343
C        1.69752018       1.97849593      -0.97000027
H        1.10184241       4.00541011      -0.63769423
C        0.75646948       1.03613735      -1.20024677
C        1.96106973       3.29706995       1.20363190
C        3.08745404       2.01857650      -1.49818358
H        0.88812813       0.15109294      -1.82643235
H        3.27808674       2.95249070      -2.05384648
H        3.28675031       1.17364760      -2.17187653
H        3.82956774       1.98331768      -0.68232462
H        2.03601113       2.37136283       1.79430296
H        1.49152498       4.06569357       1.83520882
H        2.97952304       3.63892511       0.96413920
