23
Properties=species:S:1:pos:R:3 Coordinates=T from=T ORCA-job=T reactant=T pbc="F F F"
C       -2.81579602       2.71940441       0.40591979
C       -2.75307503       1.29880560       0.12489638
C       -1.57544189       0.67007464      -0.12724671
C       -0.35564161       1.43707149      -0.11448656
C       -0.41953064       2.88546428       0.17382615
C       -1.69985537       3.49383515       0.43196469
H       -1.76038962       4.56397874       0.64442764
H       -3.79416663       3.16618086       0.60013912
H       -3.68678352       0.73079197       0.11829055
H       -1.54169439      -0.40155200      -0.33806836
C        0.83994109       3.39613756       0.13494518
C        1.82185973       2.30199052      -0.18696732
H        1.13022527       4.43457953       0.30507825
C        0.94167096       1.08928992      -0.32650959
C        2.83241706       2.11612293       0.95846612
C        2.56142481       2.59927866      -1.50322116
H        1.32235360       0.09372064      -0.56207444
H        1.84968414       2.73365133      -2.33071315
H        3.24175980       1.77249539      -1.76027926
H        3.16285538       3.51688264      -1.40916162
H        2.31580446       1.90227947       1.90549640
H        3.43830945       3.02610325       1.09012539
H        3.51588509       1.28146340       0.73816074
23
Properties=species:S:1:pos:R:3 Coordinates=T from=T ORCA-job=T isoindene_irc_IRC_Full=T E=T -425.558395952596=T pbc="F F F"
C       -2.72685700       2.66874200       0.69278000
C       -2.69527600       1.26628500       0.33099300
C       -1.57760700       0.68038100      -0.17435000
C       -0.38096100       1.46927100      -0.32142800
C       -0.43693700       2.91455600      -0.02177100
C       -1.65446600       3.47972500       0.49726000
H       -1.68313000       4.53501500       0.77967600
H       -3.63795200       3.06878600       1.14472400
H       -3.59884800       0.67171400       0.48712700
H       -1.56712600      -0.38092000      -0.43443700
C        0.80270300       3.44815500      -0.19376100
C        1.78801000       2.33518700      -0.42362400
H        1.09918500       4.48118000      -0.00318800
C        0.90462900       1.13304900      -0.61899600
C        2.47293500       2.18218900       0.96759500
C        2.85452600       2.53846900      -1.49794600
H        1.27931500       0.14048200      -0.87560900
H        2.41581700       2.69658800      -2.49325000
H        3.50602700       1.65114500      -1.54737100
H        3.49265000       3.40257200      -1.25604400
H        1.73077400       1.87002800       1.71632400
H        2.90602600       3.14166100       1.28827400
H        3.27838000       1.43378800       0.93002900
23
Properties=species:S:1:pos:R:3 Coordinates=T from=T ORCA-job=T isoindene_irc_IRC_Full=T E=T -425.558318849834=T pbc="F F F"
C       -2.72611600       2.66855100       0.69416200
C       -2.69494400       1.26633800       0.33154300
C       -1.57767200       0.68048800      -0.17479700
C       -0.38117100       1.46921200      -0.32232600
C       -0.43692200       2.91441700      -0.02257200
C       -1.65390000       3.47954100       0.49801800
H       -1.68194800       4.53456800       0.78128400
H       -3.63665300       3.06839500       1.14735900
H       -3.59859300       0.67174800       0.48804400
H       -1.56759000      -0.38081200      -0.43519000
C        0.80258100       3.44819300      -0.19544100
C        1.78794400       2.33513300      -0.42483100
H        1.09910800       4.48118100      -0.00472500
C        0.90440400       1.13311500      -0.62027500
C        2.47115100       2.18317400       0.96755300
C        2.85564000       2.53766400      -1.49770200
H        1.27901500       0.14048000      -0.87754400
H        2.41843300       2.69582900      -2.49378100
H        3.50681200       1.64992700      -1.54622400
H        3.49412100       3.40143200      -1.25526400
H        1.72856100       1.86891200       1.71498800
H        2.90136100       3.14350800       1.28931000
H        3.27852300       1.43675500       0.93093800
23
Properties=species:S:1:pos:R:3 Coordinates=T from=T ORCA-job=T isoindene_irc_IRC_Full=T E=T -425.558240716082=T pbc="F F F"
C       -2.72540500       2.66833400       0.69554500
C       -2.69470300       1.26631300       0.33209600
C       -1.57787500       0.68049400      -0.17522300
C       -0.38120300       1.46919700      -0.32324700
C       -0.43691500       2.91441000      -0.02332400
C       -1.65319400       3.47931800       0.49873800
H       -1.68074900       4.53414400       0.78292400
H       -3.63537600       3.06801600       1.14998700
H       -3.59825400       0.67184600       0.48893100
H       -1.56804900      -0.38066400      -0.43591900
C        0.80239300       3.44823200      -0.19711500
C        1.78770600       2.33505100      -0.42590800
H        1.09902500       4.48115600      -0.00626500
C        0.90425500       1.13298100      -0.62161300
C        2.46936400       2.18409500       0.96750100
C        2.85692000       2.53686700      -1.49766200
H        1.27865500       0.14061500      -0.87947100
H        2.42107800       2.69505300      -2.49422000
H        3.50754700       1.64876000      -1.54506600
H        3.49555200       3.40024400      -1.25448400
H        1.72636300       1.86779300       1.71363000
H        2.89667000       3.14540600       1.29035700
H        3.27865700       1.43978700       0.93186200
23
Properties=species:S:1:pos:R:3 Coordinates=T from=T ORCA-job=T isoindene_irc_IRC_Full=T E=T -425.558162025217=T pbc="F F F"
C       -2.72467400       2.66813200       0.69691000
C       -2.69440500       1.26636100       0.33263900
C       -1.57794400       0.68059300      -0.17565800
C       -0.38140100       1.46913700      -0.32412800
C       -0.43689400       2.91426300      -0.02410200
C       -1.65259600       3.47915300       0.49951100
H       -1.67954200       4.53367700       0.78456000
H       -3.63408800       3.06764100       1.15258000
H       -3.59799600       0.67190500       0.48981500
H       -1.56851600      -0.38056400      -0.43664100
C        0.80227200       3.44827300      -0.19878400
C        1.78761900       2.33498300      -0.42709300
H        1.09895100       4.48113800      -0.00779300
C        0.90404700       1.13301300      -0.62289800
C        2.46758400       2.18507900       0.96745800
C        2.85804600       2.53606400      -1.49744600
H        1.27834200       0.14062800      -0.88143500
H        2.42368600       2.69429100      -2.49473200
H        3.50831900       1.64754800      -1.54392700
H        3.49700500       3.39909600      -1.25370400
H        1.72417700       1.86666500       1.71229100
H        2.89196600       3.14726800       1.29138500
H        3.27881600       1.44280800       0.93278800
23
Properties=species:S:1:pos:R:3 Coordinates=T from=T ORCA-job=T isoindene_irc_IRC_Full=T E=T -425.558082422732=T pbc="F F F"
C       -2.72392200       2.66795900       0.69826600
C       -2.69416000       1.26634300       0.33317300
C       -1.57815200       0.68059200      -0.17606900
C       -0.38142300       1.46910300      -0.32503300
C       -0.43686500       2.91426600      -0.02483000
C       -1.65192200       3.47886300       0.50024400
H       -1.67832000       4.53326700       0.78623200
H       -3.63282900       3.06727700       1.15516400
H       -3.59767900       0.67201100       0.49067200
H       -1.56897600      -0.38042000      -0.43733600
C        0.80207600       3.44827800      -0.20044600
C        1.78738900       2.33489600      -0.42817300
H        1.09887700       4.48111100      -0.00931600
C        0.90388700       1.13288300      -0.62422500
C        2.46580200       2.18601100       0.96740900
C        2.85931100       2.53526200      -1.49739600
H        1.27798000       0.14075500      -0.88339100
H        2.42630900       2.69351600      -2.49516800
H        3.50904500       1.64638600      -1.54278300
H        3.49842200       3.39791100      -1.25292500
H        1.72201000       1.86553700       1.71093600
H        2.88724900       3.14916800       1.29241900
H        3.27896900       1.44587800       0.93372700
23
Properties=species:S:1:pos:R:3 Coordinates=T from=T ORCA-job=T isoindene_irc_IRC_Full=T E=T -425.558002105544=T pbc="F F F"
C       -2.72320600       2.66775800       0.69961800
C       -2.69387100       1.26639900       0.33370100
C       -1.57822500       0.68068400      -0.17649000
C       -0.38161500       1.46904300      -0.32589500
C       -0.43685000       2.91410100      -0.02558400
C       -1.65129900       3.47870300       0.50103200
H       -1.67708700       4.53278400       0.78789800
H       -3.63154500       3.06691500       1.15770900
H       -3.59743300       0.67208500       0.49152500
H       -1.56944400      -0.38032800      -0.43802500
C        0.80196400       3.44830600      -0.20210600
C        1.78730600       2.33482200      -0.42935500
H        1.09881100       4.48108400      -0.01083200
C        0.90368000       1.13289900      -0.62550900
C        2.46402600       2.18700200       0.96736400
C        2.86042600       2.53445600      -1.49718100
H        1.27765900       0.14076900      -0.88539000
H        2.42890400       2.69275300      -2.49567200
H        3.50981100       1.64517400      -1.54165500
H        3.49986200       3.39676200      -1.25214500
H        1.71985100       1.86439800       1.70959600
H        2.88250500       3.15104000       1.29343500
H        3.27914500       1.44895100       0.93467100
23
Properties=species:S:1:pos:R:3 Coordinates=T from=T ORCA-job=T isoindene_irc_IRC_Full=T E=T -425.557921001667=T pbc="F F F"
C       -2.72244400       2.66759100       0.70094900
C       -2.69363500       1.26639100       0.33422200
C       -1.57842200       0.68068900      -0.17688800
C       -0.38164800       1.46898300      -0.32678000
C       -0.43679300       2.91409800      -0.02629300
C       -1.65063100       3.47840800       0.50178500
H       -1.67584100       4.53236200       0.78959600
H       -3.63030300       3.06656900       1.16024600
H       -3.59713300       0.67220300       0.49235200
H       -1.56990500      -0.38019600      -0.43868600
C        0.80176400       3.44831200      -0.20375000
C        1.78707900       2.33471900      -0.43043200
H        1.09874100       4.48103800      -0.01234300
C        0.90352200       1.13277300      -0.62682900
C        2.46224900       2.18794400       0.96731800
C        2.86168200       2.53365300      -1.49713000
H        1.27729100       0.14089000      -0.88737900
H        2.43150800       2.69198000      -2.49610100
H        3.51052800       1.64401600      -1.54052500
H        3.50126300       3.39557800      -1.25136900
H        1.71771400       1.86326300       1.70824200
H        2.87775900       3.15294300       1.29445500
H        3.27931600       1.45206000       0.93562500
23
Properties=species:S:1:pos:R:3 Coordinates=T from=T ORCA-job=T isoindene_irc_IRC_Full=T E=T -425.557839107852=T pbc="F F F"
C       -2.72174700       2.66739300       0.70228700
C       -2.69334800       1.26645300       0.33473300
C       -1.57850100       0.68077500      -0.17729400
C       -0.38183100       1.46892500      -0.32762200
C       -0.43679000       2.91390700      -0.02702000
C       -1.64998300       3.47825100       0.50258800
H       -1.67458300       4.53186600       0.79129200
H       -3.62902400       3.06622100       1.16273900
H       -3.59690300       0.67229100       0.49317500
H       -1.57037500      -0.38011300      -0.43934000
C        0.80166800       3.44832300      -0.20540300
C        1.78700600       2.33464000      -0.43161400
H        1.09868400       4.48100700      -0.01384400
C        0.90331200       1.13278000      -0.62810900
C        2.46047700       2.18894300       0.96727200
C        2.86277800       2.53284500      -1.49690900
H        1.27696500       0.14090200      -0.88941500
H        2.43408600       2.69121800      -2.49660000
H        3.51128900       1.64280500      -1.53941000
H        3.50269100       3.39443200      -1.25058900
H        1.71558300       1.86211700       1.70690400
H        2.87298100       3.15482200       1.29545800
H        3.27950700       1.45517900       0.93658600
23
Properties=species:S:1:pos:R:3 Coordinates=T from=T ORCA-job=T isoindene_irc_IRC_Full=T E=T -425.557756424994=T pbc="F F F"
C       -2.72098000       2.66722800       0.70359400
C       -2.69312300       1.26645600       0.33524200
C       -1.57868500       0.68078500      -0.17767800
C       -0.38187600       1.46884100      -0.32848600
C       -0.43671100       2.91389500      -0.02770900
C       -1.64931300       3.47795800       0.50336200
H       -1.67331100       4.53142600       0.79301900
H       -3.62779700       3.06589300       1.16522800
H       -3.59661700       0.67242300       0.49397000
H       -1.57083700      -0.37999300      -0.43996700
C        0.80146500       3.44833200      -0.20702900
C        1.78678100       2.33452100      -0.43269000
H        1.09861900       4.48093800      -0.01534300
C        0.90315700       1.13265200      -0.62942500
C        2.45870500       2.18989700       0.96722800
C        2.86402800       2.53204200      -1.49685800
H        1.27659200       0.14101800      -0.89144100
H        2.43667400       2.69044700      -2.49702400
H        3.51199900       1.64165000      -1.53829300
H        3.50407800       3.39324900      -1.24981300
H        1.71347300       1.86097600       1.70555000
H        2.86820200       3.15672900       1.29646300
H        3.27969400       1.45833100       0.93755800
23
Properties=species:S:1:pos:R:3 Coordinates=T from=T ORCA-job=T isoindene_irc_IRC_Full=T E=T -425.557672810359=T pbc="F F F"
C       -2.72027900       2.66704900       0.70491500
C       -2.69284800       1.26651400       0.33573800
C       -1.57878600       0.68084800      -0.17806500
C       -0.38202700       1.46878000      -0.32931300
C       -0.43669600       2.91371700      -0.02840500
C       -1.64864700       3.47776500       0.50417500
H       -1.67202400       4.53093200       0.79475400
H       -3.62653300       3.06556100       1.16767400
H       -3.59639500       0.67253000       0.49476100
H       -1.57130700      -0.37991300      -0.44058100
C        0.80136000       3.44831800      -0.20867200
C        1.78669200       2.33443300      -0.43385600
H        1.09857000       4.48089900      -0.01683100
C        0.90295400       1.13262700      -0.63071000
C        2.45693300       2.19089600       0.96717900
C        2.86513500       2.53123100      -1.49665900
H        1.27625100       0.14104700      -0.89351500
H        2.43924200       2.68968300      -2.49750600
H        3.51274700       1.64044800      -1.53718900
H        3.50548800       3.39209600      -1.24903400
H        1.71136900       1.85982400       1.70420800
H        2.86338500       3.15862100       1.29745400
H        3.27989600       1.46150400       0.93854100
23
Properties=species:S:1:pos:R:3 Coordinates=T from=T ORCA-job=T isoindene_irc_IRC_Full=T E=T -425.557588582212=T pbc="F F F"
C       -2.71951200       2.66688600       0.70620100
C       -2.69264100       1.26654500       0.33624100
C       -1.57892400       0.68086600      -0.17844500
C       -0.38211800       1.46868200      -0.33014800
C       -0.43660600       2.91365500      -0.02907900
C       -1.64798900       3.47749300       0.50498000
H       -1.67072600       4.53046700       0.79650500
H       -3.62531400       3.06524900       1.17010900
H       -3.59613300       0.67267000       0.49552800
H       -1.57177200      -0.37981000      -0.44117200
C        0.80118000       3.44831800      -0.21028800
C        1.78650400       2.33430800      -0.43495200
H        1.09851400       4.48082300      -0.01831400
C        0.90279900       1.13252000      -0.63201700
C        2.45516500       2.19187000       0.96713600
C        2.86634000       2.53042600      -1.49657100
H        1.27587900       0.14114200      -0.89558300
H        2.44180800       2.68891700      -2.49793900
H        3.51346000       1.63928700      -1.53608800
H        3.50686700       3.39092300      -1.24826000
H        1.70928700       1.85867900       1.70285900
H        2.85857400       3.16052400       1.29844100
H        3.28009700       1.46469400       0.93953100
23
Properties=species:S:1:pos:R:3 Coordinates=T from=T ORCA-job=T isoindene_irc_IRC_Full=T E=T -425.557503552816=T pbc="F F F"
C       -2.71886900       2.66669400       0.70751400
C       -2.69232300       1.26659400       0.33670000
C       -1.57908400       0.68094000      -0.17879300
C       -0.38221100       1.46861800      -0.33096300
C       -0.43663000       2.91346200      -0.02973700
C       -1.64725700       3.47732000       0.50579300
H       -1.66942200       4.52995700       0.79826300
H       -3.62405400       3.06493100       1.17249300
H       -3.59593200       0.67278800       0.49629100
H       -1.57223800      -0.37974300      -0.44175100
C        0.80109900       3.44830600      -0.21191500
C        1.78641100       2.33421000      -0.43610900
H        1.09847100       4.48076700      -0.01978400
C        0.90257300       1.13248900      -0.63329100
C        2.45340400       2.19286900       0.96708700
C        2.86744000       2.52961800      -1.49638200
H        1.27553300       0.14117100      -0.89768800
H        2.44435400       2.68815800      -2.49841000
H        3.51419900       1.63809400      -1.53500200
H        3.50825900       3.38977500      -1.24748400
H        1.70721200       1.85752900       1.70152400
H        2.85374600       3.16241700       1.29941400
H        3.28030900       1.46789600       0.94052900
23
Properties=species:S:1:pos:R:3 Coordinates=T from=T ORCA-job=T isoindene_irc_IRC_Full=T E=T -425.557417566898=T pbc="F F F"
C       -2.71809000       2.66654500       0.70877800
C       -2.69213500       1.26663700       0.33719400
C       -1.57920400       0.68094900      -0.17916200
C       -0.38231600       1.46850700      -0.33177400
C       -0.43652000       2.91338900      -0.03038700
C       -1.64660000       3.47703400       0.50662300
H       -1.66809200       4.52947800       0.80005100
H       -3.62284900       3.06463600       1.17487800
H       -3.59568500       0.67294300       0.49702700
H       -1.57270500      -0.37964900      -0.44230200
C        0.80091600       3.44829200      -0.21352000
C        1.78622900       2.33407500      -0.43720600
H        1.09842500       4.48067800      -0.02125300
C        0.90242300       1.13237200      -0.63459900
C        2.45163500       2.19385500       0.96704400
C        2.86863600       2.52881000      -1.49629200
H        1.27515300       0.14126400      -0.89980500
H        2.44690700       2.68739200      -2.49883900
H        3.51490800       1.63693400      -1.53391400
H        3.50962600       3.38860100      -1.24670900
H        1.70515300       1.85638000       1.70017300
H        2.84889200       3.16432700       1.30038500
H        3.28052100       1.47113800       0.94154100
23
Properties=species:S:1:pos:R:3 Coordinates=T from=T ORCA-job=T isoindene_irc_IRC_Full=T E=T -425.557331106531=T pbc="F F F"
C       -2.71734200       2.66640500       0.71003900
C       -2.69193900       1.26671100       0.33768400
C       -1.57927000       0.68096300      -0.17953600
C       -0.38247500       1.46843200      -0.33255200
C       -0.43643600       2.91322200      -0.03103600
C       -1.64595600       3.47677600       0.50746900
H       -1.66675900       4.52898300       0.80184200
H       -3.62163400       3.06434300       1.17721800
H       -3.59546800       0.67308900       0.49775200
H       -1.57317500      -0.37957000      -0.44283500
C        0.80077700       3.44823400      -0.21512600
C        1.78612200       2.33397100      -0.43834500
H        1.09839400       4.48062000      -0.02270300
C        0.90225400       1.13229300      -0.63588700
C        2.44988100       2.19485500       0.96699600
C        2.86974300       2.52800100      -1.49612500
H        1.27478900       0.14131700      -0.90194000
H        2.44943500       2.68663700      -2.49929500
H        3.51563500       1.63575500      -1.53284300
H        3.51099700       3.38745300      -1.24593600
H        1.70311000       1.85523300       1.69883900
H        2.84404600       3.16622200       1.30134000
H        3.28074000       1.47437700       0.94255800
23
Properties=species:S:1:pos:R:3 Coordinates=T from=T ORCA-job=T isoindene_irc_IRC_Full=T E=T -425.557243493405=T pbc="F F F"
C       -2.71667900       2.66621700       0.71131400
C       -2.69163700       1.26673500       0.33811600
C       -1.57950000       0.68102400      -0.17983900
C       -0.38248900       1.46830300      -0.33336300
C       -0.43641400       2.91311300      -0.03163800
C       -1.64518300       3.47655800       0.50829600
H       -1.66541000       4.52847100       0.80365400
H       -3.62041900       3.06406100       1.17953600
H       -3.59526400       0.67324500       0.49846600
H       -1.57363600      -0.37950900      -0.44335400
C        0.80065800       3.44824900      -0.21672000
C        1.78594900       2.33381800      -0.43944500
H        1.09835100       4.48050500      -0.02415800
C        0.90205200       1.13220000      -0.63717400
C        2.44811700       2.19585000       0.96695200
C        2.87092400       2.52719600      -1.49603000
H        1.27441000       0.14139300      -0.90410100
H        2.45196900       2.68587600      -2.49972000
H        3.51633900       1.63459900      -1.53177200
H        3.51235000       3.38628500      -1.24516400
H        1.70107700       1.85408600       1.69749200
H        2.83917000       3.16813300       1.30229200
H        3.28096000       1.47765300       0.94358900
23
Properties=species:S:1:pos:R:3 Coordinates=T from=T ORCA-job=T isoindene_irc_IRC_Full=T E=T -425.557155143666=T pbc="F F F"
C       -2.71594000       2.66608300       0.71256200
C       -2.69143900       1.26680900       0.33858800
C       -1.57958200       0.68103500      -0.18019000
C       -0.38262900       1.46821700      -0.33412500
C       -0.43632700       2.91293800      -0.03225800
C       -1.64451400       3.47629200       0.50915900
H       -1.66404600       4.52796600       0.80548400
H       -3.61921700       3.06378500       1.18182800
H       -3.59506300       0.67340500       0.49916400
H       -1.57410500      -0.37944400      -0.44384800
C        0.80052400       3.44818200      -0.21831700
C        1.78584100       2.33370100      -0.44058200
H        1.09832800       4.48043200      -0.02559600
C        0.90188200       1.13211000      -0.63846400
C        2.44636000       2.19686000       0.96690400
C        2.87203100       2.52638400      -1.49587000
H        1.27403700       0.14144900      -0.90628800
H        2.45448800       2.68512200      -2.50016900
H        3.51706100       1.63342400      -1.53071300
H        3.51370900       3.38513500      -1.24439000
H        1.69905300       1.85293900       1.69615500
H        2.83428000       3.17003700       1.30323100
H        3.28118500       1.48094400       0.94462900
23
Properties=species:S:1:pos:R:3 Coordinates=T from=T ORCA-job=T isoindene_irc_IRC_Full=T E=T -425.557073947929=T pbc="F F F"
C       -2.71498300       2.66606500       0.71357200
C       -2.69158300       1.26693600       0.33912600
C       -1.57940100       0.68090100      -0.18061300
C       -0.38293800       1.46809700      -0.33476000
C       -0.43598800       2.91291000      -0.03283800
C       -1.64417000       3.47586800       0.50998100
H       -1.66281000       4.52756000       0.80712900
H       -3.61823500       3.06356800       1.18388200
H       -3.59480500       0.67359300       0.49975400
H       -1.57453100      -0.37932800      -0.44425500
C        0.80023700       3.44807400      -0.21970500
C        1.78567500       2.33357700      -0.44154300
H        1.09831500       4.48036200      -0.02686700
C        0.90189100       1.13191800      -0.63966300
C        2.44479400       2.19774700       0.96686900
C        2.87309000       2.52566000      -1.49580300
H        1.27366800       0.14157000      -0.90822800
H        2.45672500       2.68445000      -2.50054000
H        3.51768000       1.63240600      -1.52977400
H        3.51489800       3.38410000      -1.24370300
H        1.69726900       1.85192500       1.69495700
H        2.82992800       3.17173600       1.30406100
H        3.28138600       1.48388500       0.94556100
23
Properties=species:S:1:pos:R:3 Coordinates=T from=T ORCA-job=T isoindene_irc_IRC_Full=T E=T -425.556996325890=T pbc="F F F"
C       -2.71456700       2.66616300       0.71470700
C       -2.69110500       1.26703800       0.33940000
C       -1.57934500       0.68095200      -0.18091300
C       -0.38338900       1.46846300      -0.33521200
C       -0.43628500       2.91204700      -0.03339000
C       -1.64369600       3.47576800       0.51075300
H       -1.66170300       4.52707300       0.80863700
H       -3.61708300       3.06328500       1.18562600
H       -3.59484400       0.67362000       0.50034400
H       -1.57494400      -0.37931700      -0.44463200
C        0.80048200       3.44747200      -0.22118000
C        1.78612900       2.33377400      -0.44281900
H        1.09842700       4.48071100      -0.02795300
C        0.90158700       1.13226900      -0.64059600
C        2.44340500       2.19858300       0.96676400
C        2.87329000       2.52498500      -1.49510000
H        1.27352100       0.14124000      -0.91014900
H        2.45873600       2.68386700      -2.50112100
H        3.51847800       1.63120700      -1.52896000
H        3.51614200       3.38331700      -1.24304700
H        1.69559100       1.85096600       1.69393800
H        2.82590100       3.17328300       1.30480700
H        3.28155600       1.48661100       0.94642900
23
Properties=species:S:1:pos:R:3 Coordinates=T from=T ORCA-job=T isoindene_irc_IRC_Full=T E=T -425.556837964371=T pbc="F F F"
C       -2.71321300       2.66546800       0.71669600
C       -2.69102900       1.26704000       0.34025000
C       -1.58002400       0.68102000      -0.18129500
C       -0.38277700       1.46744900      -0.33683400
C       -0.43565700       2.91295100      -0.03422800
C       -1.64205200       3.47522300       0.51218100
H       -1.65917500       4.52620500       0.81197100
H       -3.61526100       3.06296800       1.18963700
H       -3.59423900       0.67413000       0.50143600
H       -1.57570200      -0.37921200      -0.44539700
C        0.79974600       3.44837500      -0.22364700
C        1.78495700       2.33296300      -0.44419000
H        1.09817100       4.47974700      -0.03058700
C        0.90145500       1.13137800      -0.64305700
C        2.44022900       2.20037900       0.96679500
C        2.87649300       2.52358400      -1.49587400
H        1.27255300       0.14199200      -0.91397200
H        2.46320900       2.68249400      -2.50149500
H        3.51935600       1.62959100      -1.52706800
H        3.51823700       3.38101000      -1.24172900
H        1.69214800       1.84899900       1.69145100
H        2.81720900       3.17668600       1.30642500
H        3.28200100       1.49251700       0.94832300
23
Properties=species:S:1:pos:R:3 Coordinates=T from=T ORCA-job=T isoindene_irc_IRC_Full=T E=T -425.556666175162=T pbc="F F F"
C       -2.71206800       2.66551200       0.71909300
C       -2.69028700       1.26723700       0.34093500
C       -1.58005100       0.68106600      -0.18188200
C       -0.38341100       1.46776800      -0.33796300
C       -0.43590700       2.91169900      -0.03531700
C       -1.64082800       3.47483800       0.51396400
H       -1.65651500       4.52510100       0.81554500
H       -3.61287300       3.06246200       1.19353100
H       -3.59416400       0.67436800       0.50264900
H       -1.57661200      -0.37917800      -0.44611300
C        0.79995400       3.44753100      -0.22679100
C        1.78540700       2.33305300      -0.44672800
H        1.09832700       4.48004000      -0.03309900
C        0.90094400       1.13169600      -0.64532200
C        2.43700300       2.20229700       0.96662400
C        2.87767300       2.52205600      -1.49490200
H        1.27200700       0.14164600      -0.91843700
H        2.46780700       2.68114300      -2.50256900
H        3.52094700       1.62712700      -1.52521700
H        3.52088600       3.37906000      -1.24025600
H        1.68842000       1.84685700       1.68903900
H        2.80791100       3.18026800       1.30807600
H        3.28241500       1.49888700       0.95038500
23
Properties=species:S:1:pos:R:3 Coordinates=T from=T ORCA-job=T isoindene_irc_IRC_Full=T E=T -425.556484839493=T pbc="F F F"
C       -2.71067700       2.66501900       0.72128600
C       -2.69004500       1.26733800       0.34177200
C       -1.58054800       0.68110600      -0.18230000
C       -0.38313400       1.46704900      -0.33947900
C       -0.43545900       2.91195800      -0.03620300
C       -1.63916500       3.47426100       0.51567400
H       -1.65366900       4.52406200       0.81930700
H       -3.61080300       3.06212900       1.19761400
H       -3.59372200       0.67487600       0.50377100
H       -1.57746900      -0.37912800      -0.44678500
C        0.79946100       3.44792300      -0.22959900
C        1.78468000       2.33242400      -0.44856800
H        1.09821500       4.47934700      -0.03583100
C        0.90069200       1.13107200      -0.64791000
C        2.43358100       2.20430700       0.96659100
C        2.88046500       2.52050900      -1.49519400
H        1.27106500       0.14212800      -0.92290300
H        2.47259900       2.67969600      -2.50317300
H        3.52210000       1.62515600      -1.52325800
H        3.52325900       3.37670400      -1.23879900
H        1.68469700       1.84472100       1.68640200
H        2.79830700       3.18397800       1.30975000
H        3.28288700       1.50548700       0.95254500
23
Properties=species:S:1:pos:R:3 Coordinates=T from=T ORCA-job=T isoindene_irc_IRC_Full=T E=T -425.556296532226=T pbc="F F F"
C       -2.70940400       2.66493300       0.72364000
C       -2.68947600       1.26753200       0.34250100
C       -1.58068900       0.68111200      -0.18280000
C       -0.38351600       1.46701700      -0.34068600
C       -0.43544700       2.91108100      -0.03716800
C       -1.63773100       3.47376700       0.51758000
H       -1.65075700       4.52289000       0.82318300
H       -3.60849100       3.06172800       1.20151200
H       -3.59357200       0.67525800       0.50491300
H       -1.57839300      -0.37911400      -0.44736700
C        0.79947300       3.44737200      -0.23271500
C        1.78478200       2.33226100      -0.45097900
H        1.09833500       4.47930300      -0.03844100
C        0.90026200       1.13107800      -0.65036500
C        2.43017800       2.20634200       0.96645600
C        2.88216200       2.51892400      -1.49459400
H        1.27034200       0.14202900      -0.92771700
H        2.47738100       2.67828800      -2.50412900
H        3.52361300       1.62277200      -1.52136800
H        3.52587800       3.37457200      -1.23727900
H        1.68089500       1.84254200       1.68383600
H        2.78848500       3.18775300       1.31139500
H        3.28332700       1.51229000       0.95479500
23
Properties=species:S:1:pos:R:3 Coordinates=T from=T ORCA-job=T isoindene_irc_IRC_Full=T E=T -425.556102928111=T pbc="F F F"
C       -2.70802200       2.66458300       0.72585000
C       -2.68917500       1.26769700       0.34329600
C       -1.58106000       0.68111500      -0.18318500
C       -0.38342300       1.46644700      -0.34205200
C       -0.43506600       2.91095800      -0.03798700
C       -1.63607500       3.47316000       0.51945800
H       -1.64774100       4.52174800       0.82715800
H       -3.60637800       3.06144200       1.20539900
H       -3.59325500       0.67578500       0.50597100
H       -1.57928200      -0.37911900      -0.44787700
C        0.79912700       3.44744400      -0.23561200
C        1.78431300       2.33172100      -0.45302800
H        1.09833500       4.47873500      -0.04111700
C        0.89996300       1.13058500      -0.65296800
C        2.42670400       2.20843800       0.96639300
C        2.88465600       2.51734000      -1.49463500
H        1.26941200       0.14235800      -0.93255600
H        2.48220400       2.67685400      -2.50483400
H        3.52489000       1.62067200      -1.51946300
H        3.52831700       3.37225700      -1.23578200
H        1.67714100       1.84040300       1.68118300
H        2.77856200       3.19155300       1.31300500
H        3.28378900       1.51918600       0.95710300
23
Properties=species:S:1:pos:R:3 Coordinates=T from=T ORCA-job=T isoindene_irc_IRC_Full=T E=T -425.555904763007=T pbc="F F F"
C       -2.70671200       2.66445400       0.72811200
C       -2.68870900       1.26790400       0.34401700
C       -1.58124900       0.68108400      -0.18358400
C       -0.38366000       1.46621500      -0.34322300
C       -0.43490300       2.91023100      -0.03880300
C       -1.63452300       3.47259600       0.52145300
H       -1.64467800       4.52052500       0.83120300
H       -3.60418100       3.06114900       1.20909900
H       -3.59310200       0.67626200       0.50700700
H       -1.58019900      -0.37914800      -0.44829000
C        0.79905900       3.44700800      -0.23864000
C        1.78426200       2.33140900      -0.45535100
H        1.09847000       4.47849000      -0.04369100
C        0.89958200       1.13041900      -0.65548900
C        2.42325800       2.21053000       0.96627400
C        2.88656100       2.51574900      -1.49422700
H        1.26858400       0.14238800      -0.93761600
H        2.48698000       2.67545900      -2.50571400
H        3.52634900       1.61837800      -1.51762900
H        3.53085500       3.37007900      -1.23426200
H        1.67338200       1.83827900       1.67858000
H        2.76856300       3.19537800       1.31456500
H        3.28421700       1.52618700       0.95947400
23
Properties=species:S:1:pos:R:3 Coordinates=T from=T ORCA-job=T isoindene_irc_IRC_Full=T E=T -425.555702343699=T pbc="F F F"
C       -2.70535400       2.66418500       0.73026800
C       -2.68839500       1.26810600       0.34476700
C       -1.58155900       0.68105100      -0.18389200
C       -0.38362300       1.46567500      -0.34445300
C       -0.43452500       2.90990300      -0.03949900
C       -1.63283800       3.47195800       0.52344900
H       -1.64154200       4.51931200       0.83532000
H       -3.60212100       3.06094200       1.21271000
H       -3.59287100       0.67683000       0.50797300
H       -1.58108900      -0.37920500      -0.44862100
C        0.79879900       3.44690700      -0.24151700
C        1.78391800       2.33087800      -0.45748000
H        1.09855200       4.47793300      -0.04627200
C        0.89926800       1.12996000      -0.65808500
C        2.41978300       2.21267500       0.96619500
C        2.88889500       2.51416500      -1.49417200
H        1.26763000       0.14266200      -0.94273200
H        2.49175000       2.67406400      -2.50644900
H        3.52767300       1.61626300      -1.51581800
H        3.53326800       3.36781000      -1.23276400
H        1.66967100       1.83620600       1.67594300
H        2.75852000       3.19919800       1.31606800
H        3.28464800       1.53324100       0.96189400
23
Properties=species:S:1:pos:R:3 Coordinates=T from=T ORCA-job=T isoindene_irc_IRC_Full=T E=T -425.555495945971=T pbc="F F F"
C       -2.70404500       2.66406500       0.73243700
C       -2.68798300       1.26833300       0.34546400
C       -1.58174900       0.68098500      -0.18419000
C       -0.38379400       1.46533800      -0.34553200
C       -0.43427400       2.90918300      -0.04015900
C       -1.63121400       3.47134400       0.52553500
H       -1.63836500       4.51803500       0.83948800
H       -3.60003500       3.06075400       1.21613500
H       -3.59275400       0.67737400       0.50890500
H       -1.58199300      -0.37928200      -0.44885600
C        0.79872800       3.44646700      -0.24446000
C        1.78382800       2.33048500      -0.45976900
H        1.09873500       4.47756800      -0.04875800
C        0.89891200       1.12970800      -0.66062100
C        2.41633800       2.21479900       0.96608000
C        2.89084400       2.51258600      -1.49384500
H        1.26673400       0.14273900      -0.94802600
H        2.49646300       2.67270900      -2.50729100
H        3.52911600       1.61403700      -1.51407800
H        3.53572800       3.36564400      -1.23125600
H        1.66597800       1.83417300       1.67334600
H        2.74845000       3.20303500       1.31751500
H        3.28503800       1.54036600       0.96436900
23
Properties=species:S:1:pos:R:3 Coordinates=T from=T ORCA-job=T isoindene_irc_IRC_Full=T E=T -425.555285476827=T pbc="F F F"
C       -2.70270400       2.66383400       0.73451000
C       -2.68769200       1.26856000       0.34618200
C       -1.58202800       0.68091800      -0.18440100
C       -0.38373900       1.46474800      -0.34664100
C       -0.43384000       2.90876700      -0.04070500
C       -1.62947700       3.47065800       0.52762800
H       -1.63512500       4.51676800       0.84371800
H       -3.59807500       3.06064700       1.21944400
H       -3.59258200       0.67799400       0.50977000
H       -1.58287500      -0.37939200      -0.44901000
C        0.79849700       3.44629500      -0.24726100
C        1.78352700       2.32990800      -0.46190800
H        1.09888800       4.47694200      -0.05123200
C        0.89860000       1.12920200      -0.66321700
C        2.41287300       2.21699700       0.96600100
C        2.89312600       2.51101500      -1.49379100
H        1.26572800       0.14302200      -0.95338300
H        2.50115200       2.67136500      -2.50802200
H        3.53045100       1.61196600      -1.51237600
H        3.53807400       3.36341500      -1.22977000
H        1.66232600       1.83219900       1.67073200
H        2.73835600       3.20684700       1.31889300
H        3.28542900       1.54752100       0.96689100
23
Properties=species:S:1:pos:R:3 Coordinates=T from=T ORCA-job=T isoindene_irc_IRC_Full=T E=T -425.555070892487=T pbc="F F F"
C       -2.70140900       2.66374900       0.73659200
C       -2.68730800       1.26881000       0.34685300
C       -1.58219400       0.68080800      -0.18459700
C       -0.38389100       1.46435100      -0.34759400
C       -0.43352500       2.90797500      -0.04120300
C       -1.62780300       3.47000400       0.52981800
H       -1.63184600       4.51543100       0.84799000
H       -3.59609800       3.06056300       1.22255500
H       -3.59251700       0.67859300       0.51060200
H       -1.58376800      -0.37951600      -0.44906900
C        0.79846000       3.44577300      -0.25012900
C        1.78345000       2.32946100      -0.46419100
H        1.09914600       4.47650600      -0.05360400
C        0.89827100       1.12891400      -0.66575100
C        2.40944300       2.21913100       0.96588100
C        2.89503700       2.50945200      -1.49349600
H        1.26477300       0.14310600      -0.95892400
H        2.50578700       2.67006300      -2.50884800
H        3.53190300       1.60979400      -1.51075100
H        3.54046100       3.36128800      -1.22827600
H        1.65869300       1.83027900       1.66815400
H        2.72825100       3.21069800       1.32021600
H        3.28576000       1.55474800       0.96946800
23
Properties=species:S:1:pos:R:3 Coordinates=T from=T ORCA-job=T isoindene_irc_IRC_Full=T E=T -425.554852000477=T pbc="F F F"
C       -2.70008900       2.66354500       0.73858000
C       -2.68704200       1.26905700       0.34754700
C       -1.58245000       0.68070700      -0.18469900
C       -0.38379300       1.46369200      -0.34857700
C       -0.43301600       2.90749400      -0.04158200
C       -1.62600000       3.46926700       0.53200800
H       -1.62851000       4.51411600       0.85232100
H       -3.59425600       3.06056600       1.22554200
H       -3.59239600       0.67926800       0.51136900
H       -1.58463700      -0.37968000      -0.44905100
C        0.79824500       3.44555400      -0.25283500
C        1.78318100       2.32882400      -0.46633100
H        1.09937400       4.47578100      -0.05596200
C        0.89796300       1.12833800      -0.66834800
C        2.40598600       2.22139700       0.96580800
C        2.89729300       2.50789800      -1.49346300
H        1.26370100       0.14341500      -0.96452300
H        2.51039000       2.66877700      -2.50956900
H        3.53324800       1.60778500      -1.50917000
H        3.54272900       3.35909800      -1.22680800
H        1.65509400       1.82842400       1.66556400
H        2.71812400       3.21449100       1.32145400
H        3.28610300       1.56198200       0.97209200
23
Properties=species:S:1:pos:R:3 Coordinates=T from=T ORCA-job=T isoindene_irc_IRC_Full=T E=T -425.554628664114=T pbc="F F F"
C       -2.69881400       2.66349100       0.74057900
C       -2.68667500       1.26932500       0.34819600
C       -1.58259400       0.68055600      -0.18478400
C       -0.38391700       1.46323200      -0.34939500
C       -0.43264400       2.90661800      -0.04190300
C       -1.62426700       3.46857600       0.53430600
H       -1.62513800       4.51271900       0.85668400
H       -3.59239800       3.06059400       1.22831800
H       -3.59238500       0.67991900       0.51210500
H       -1.58551700      -0.37985400      -0.44894100
C        0.79825500       3.44494300      -0.25562200
C        1.78311600       2.32832300      -0.46860900
H        1.09971900       4.47526800      -0.05820800
C        0.89765700       1.12801600      -0.67087400
C        2.40257400       2.22353400       0.96568000
C        2.89916400       2.50635600      -1.49320400
H        1.26268100       0.14350300      -0.97031700
H        2.51494100       2.66753600      -2.51038100
H        3.53471700       1.60567300      -1.50767100
H        3.54504000       3.35701900      -1.22533200
H        1.65150900       1.82663700       1.66300700
H        2.70799900       3.21836000       1.32264600
H        3.28635700       1.56930100       0.97477500
23
Properties=species:S:1:pos:R:3 Coordinates=T from=T ORCA-job=T isoindene_irc_IRC_Full=T E=T -425.554400744023=T pbc="F F F"
C       -2.69752000       2.66331600       0.74248700
C       -2.68642400       1.26958600       0.34887400
C       -1.58282700       0.68041600      -0.18476900
C       -0.38377300       1.46250400      -0.35024200
C       -0.43205800       2.90606700      -0.04210100
C       -1.62239700       3.46778800       0.53659700
H       -1.62171500       4.51135800       0.86109900
H       -3.59068000       3.06071100       1.23096000
H       -3.59231400       0.68064500       0.51277900
H       -1.58637400      -0.38006800      -0.44876200
C        0.79806400       3.44467600      -0.25822600
C        1.78288800       2.32762000      -0.47075400
H        1.10003500       4.47443600      -0.06044000
C        0.89735000       1.12736900      -0.67346800
C        2.39912300       2.22587400       0.96561400
C        2.90138700       2.50482400      -1.49319300
H        1.26153500       0.14383500      -0.97616100
H        2.51945400       2.66631600      -2.51110000
H        3.53607900       1.60373100      -1.50622400
H        3.54722500       3.35487500      -1.22388500
H        1.64795000       1.82491700       1.66044200
H        2.69785300       3.22213000       1.32373500
H        3.28664000       1.57659700       0.97750200
23
Properties=species:S:1:pos:R:3 Coordinates=T from=T ORCA-job=T isoindene_irc_IRC_Full=T E=T -425.554168021143=T pbc="F F F"
C       -2.69626400       2.66328400       0.74440400
C       -2.68607000       1.26987000       0.34951300
C       -1.58294500       0.68022600      -0.18473400
C       -0.38386100       1.46197600      -0.35091300
C       -0.43162700       2.90510500      -0.04222800
C       -1.62060000       3.46705800       0.53900700
H       -1.61826300       4.50990700       0.86553500
H       -3.58895300       3.06085800       1.23338100
H       -3.59235200       0.68134400       0.51342400
H       -1.58724100      -0.38029100      -0.44849900
C        0.79812800       3.44396900      -0.26092400
C        1.78283200       2.32706100      -0.47302400
H        1.10048100       4.47383900      -0.06254900
C        0.89706800       1.12701000      -0.67598200
C        2.39573400       2.22800800       0.96547600
C        2.90322300       2.50330300      -1.49297700
H        1.26044100       0.14392700      -0.98220800
H        2.52391700       2.66514300      -2.51190100
H        3.53757200       1.60168800      -1.50486500
H        3.54945500       3.35284900      -1.22242900
H        1.64440200       1.82327900       1.65790600
H        2.68772400       3.22601900       1.32478900
H        3.28680100       1.58399400       0.98029000
23
Properties=species:S:1:pos:R:3 Coordinates=T from=T ORCA-job=T isoindene_irc_IRC_Full=T E=T -425.553930364793=T pbc="F F F"
C       -2.69499700       2.66314000       0.74623800
C       -2.68582800       1.27013700       0.35018300
C       -1.58315200       0.68004000      -0.18459500
C       -0.38366700       1.46117800      -0.35161100
C       -0.43095800       2.90447500      -0.04223200
C       -1.61866200       3.46621600       0.54140500
H       -1.61476600       4.50850400       0.87001600
H       -3.58736700       3.06109400       1.23565600
H       -3.59232900       0.68211800       0.51400800
H       -1.58808600      -0.38055000      -0.44817400
C        0.79796400       3.44365100      -0.26341700
C        1.78265000       2.32628800      -0.47517800
H        1.10090100       4.47289100      -0.06464300
C        0.89676500       1.12629100      -0.67856800
C        2.39228500       2.23042200       0.96541900
C        2.90540900       2.50179700      -1.49299200
H        1.25921300       0.14427900      -0.98829600
H        2.52833700       2.66399600      -2.51262000
H        3.53895900       1.59981800      -1.50356400
H        3.55155200       3.35075700      -1.22100700
H        1.64087300       1.82171300       1.65536400
H        2.67757300       3.22976300       1.32572100
H        3.28701300       1.59133700       0.98312000
23
Properties=species:S:1:pos:R:3 Coordinates=T from=T ORCA-job=T isoindene_irc_IRC_Full=T E=T -425.553687525793=T pbc="F F F"
C       -2.69375600       2.66312200       0.74807500
C       -2.68548200       1.27043600       0.35082400
C       -1.58323900       0.67981200      -0.18443200
C       -0.38371400       1.46057700      -0.35212400
C       -0.43046300       2.90342700      -0.04215100
C       -1.61680100       3.46544500       0.54393200
H       -1.61124600       4.50700500       0.87450200
H       -3.58578300       3.06136700       1.23770400
H       -3.59241300       0.68286100       0.51456600
H       -1.58894000      -0.38082100      -0.44777700
C        0.79808600       3.44284300      -0.26602000
C        1.78260300       2.32566800      -0.47743900
H        1.10146500       4.47220300      -0.06660200
C        0.89650700       1.12588900      -0.68106400
C        2.38892100       2.23255500       0.96526900
C        2.90720900       2.50030000      -1.49282400
H        1.25803400       0.14437700      -0.99459000
H        2.53270800       2.66289800      -2.51341500
H        3.54047900       1.59785300      -1.50235500
H        3.55369500       3.34878900      -1.21957500
H        1.63734800       1.82024000       1.65285100
H        2.66745600       3.23366900       1.32662900
H        3.28707000       1.59879400       0.98601000
23
Properties=species:S:1:pos:R:3 Coordinates=T from=T ORCA-job=T isoindene_irc_IRC_Full=T E=T -425.553439321408=T pbc="F F F"
C       -2.69251500       2.66301200       0.74984400
C       -2.68524200       1.27070000       0.35149800
C       -1.58341600       0.67957400      -0.18416400
C       -0.38346600       1.45970800      -0.35265900
C       -0.42970400       2.90271300      -0.04194500
C       -1.61479500       3.46454800       0.54644200
H       -1.60769100       4.50556600       0.87902700
H       -3.58433800       3.06172700       1.23959200
H       -3.59243400       0.68367800       0.51506500
H       -1.58977300      -0.38111700      -0.44732600
C        0.79795400       3.44247200      -0.26839300
C        1.78246700       2.32482100      -0.47960100
H        1.10200800       4.47112800      -0.06854800
C        0.89620800       1.12509800      -0.68363500
C        2.38547300       2.23503900       0.96521900
C        2.90935800       2.49882400      -1.49287100
H        1.25671600       0.14474700      -1.00091600
H        2.53703300       2.66183000      -2.51414000
H        3.54189800       1.59606100      -1.50121000
H        3.55570000       3.34675600      -1.21818100
H        1.63383500       1.81884300       1.65033100
H        2.65731500       3.23738900       1.32740000
H        3.28719700       1.60617000       0.98893800
23
Properties=species:S:1:pos:R:3 Coordinates=T from=T ORCA-job=T isoindene_irc_IRC_Full=T E=T -425.553185551058=T pbc="F F F"
C       -2.69128700       2.66299800       0.75160700
C       -2.68490000       1.27101200       0.35215600
C       -1.58346700       0.67931000      -0.18386600
C       -0.38346700       1.45903100      -0.35300100
C       -0.42914200       2.90157500      -0.04164100
C       -1.61287200       3.46373400       0.54908900
H       -1.60412100       4.50403000       0.88353800
H       -3.58290500       3.06213100       1.24124800
H       -3.59256100       0.68446000       0.51553900
H       -1.59061500      -0.38143400      -0.44682000
C        0.79814000       3.44155900      -0.27089200
C        1.78243200       2.32413800      -0.48185600
H        1.10271000       4.47034100      -0.07034600
C        0.89597700       1.12464900      -0.68610700
C        2.38213400       2.23717500       0.96505600
C        2.91111900       2.49735300      -1.49275300
H        1.25544300       0.14485100      -1.00744400
H        2.54131100       2.66081300      -2.51493500
H        3.54345100       1.59417900      -1.50016300
H        3.55775000       3.34485300      -1.21677800
H        1.63032000       1.81755000       1.64784000
H        2.64722500       3.24130600       1.32815900
H        3.28713800       1.61366900       0.99192200
23
Properties=species:S:1:pos:R:3 Coordinates=T from=T ORCA-job=T isoindene_irc_IRC_Full=T E=T -425.552925878413=T pbc="F F F"
C       -2.69006900       2.66292200       0.75332000
C       -2.68465600       1.27126400       0.35284500
C       -1.58361100       0.67901500      -0.18346200
C       -0.38316100       1.45809000      -0.35335900
C       -0.42828700       2.90078000      -0.04120900
C       -1.61079700       3.46277700       0.55171600
H       -1.60052500       4.50256400       0.88807800
H       -3.58160900       3.06261900       1.24273100
H       -3.59262400       0.68531500       0.51595700
H       -1.59143700      -0.38176000      -0.44627100
C        0.79804300       3.44113300      -0.27313800
C        1.78234100       2.32321400      -0.48402500
H        1.10339700       4.46913100      -0.07213200
C        0.89568400       1.12378400      -0.68865500
C        2.37868700       2.23972300       0.96501300
C        2.91323400       2.49591100      -1.49284200
H        1.25402800       0.14523600      -1.01399500
H        2.54553900       2.65983000      -2.51567000
H        3.54490500       1.59247100      -1.49918400
H        3.55965600       3.34288300      -1.21541500
H        1.62681000       1.81633700       1.64534000
H        2.63711100       3.24500100       1.32876900
H        3.28716600       1.62106500       0.99493800
23
Properties=species:S:1:pos:R:3 Coordinates=T from=T ORCA-job=T isoindene_irc_IRC_Full=T E=T -425.552660277417=T pbc="F F F"
C       -2.68887200       2.66289300       0.75502100
C       -2.68433500       1.27159100       0.35354600
C       -1.58359700       0.67869400      -0.18303400
C       -0.38313300       1.45734600      -0.35350900
C       -0.42766800       2.89953800      -0.04066500
C       -1.60878900       3.46194100       0.55448500
H       -1.59692500       4.50099500       0.89258200
H       -3.58033200       3.06315400       1.24397500
H       -3.59278300       0.68613300       0.51634900
H       -1.59227000      -0.38211000      -0.44568200
C        0.79831200       3.44014500      -0.27552200
C        1.78232100       2.32246700      -0.48627300
H        1.10425800       4.46822000      -0.07376100
C        0.89549900       1.12326000      -0.69110400
C        2.37537000       2.24187200       0.96483600
C        2.91495200       2.49447000      -1.49277600
H        1.25265000       0.14535800      -1.02073300
H        2.54972000       2.65890000      -2.51647400
H        3.54649500       1.59067900      -1.49830700
H        3.56160900       3.34105200      -1.21404400
H        1.62328900       1.81523800       1.64287300
H        2.62706600       3.24892100       1.32937900
H        3.28698200       1.62858300       0.99800200
23
Properties=species:S:1:pos:R:3 Coordinates=T from=T ORCA-job=T isoindene_irc_IRC_Full=T E=T -425.552388029577=T pbc="F F F"
C       -2.68763100       2.66286600       0.75667900
C       -2.68403100       1.27181000       0.35424700
C       -1.58375000       0.67838100      -0.18246000
C       -0.38272400       1.45631600      -0.35368800
C       -0.42668200       2.89867300      -0.03999700
C       -1.60669300       3.46088300       0.55724300
H       -1.59330200       4.49952300       0.89711200
H       -3.57920000       3.06377700       1.24503800
H       -3.59289500       0.68701300       0.51669100
H       -1.59308300      -0.38247600      -0.44506900
C        0.79822800       3.43958300      -0.27764300
C        1.78226600       2.32146900      -0.48845700
H        1.10513100       4.46690200      -0.07537000
C        0.89517400       1.12238100      -0.69359500
C        2.37192400       2.24446200       0.96479200
C        2.91702200       2.49306200      -1.49290900
H        1.25113800       0.14572800      -1.02750300
H        2.55385700       2.65800500      -2.51722400
H        3.54798900       1.58905900      -1.49750400
H        3.56341300       3.33915100      -1.21271500
H        1.61976700       1.81422800       1.64039100
H        2.61699300       3.25260300       1.32983800
H        3.28688600       1.63599300       1.00109000
23
Properties=species:S:1:pos:R:3 Coordinates=T from=T ORCA-job=T isoindene_irc_IRC_Full=T E=T -425.552109252960=T pbc="F F F"
C       -2.68648300       2.66281600       0.75833900
C       -2.68375200       1.27213700       0.35501400
C       -1.58365200       0.67797100      -0.18190700
C       -0.38266000       1.45549200      -0.35363000
C       -0.42599300       2.89734700      -0.03919500
C       -1.60457000       3.46002100       0.56013200
H       -1.58968600       4.49793300       0.90158500
H       -3.57808100       3.06444500       1.24585400
H       -3.59307200       0.68786900       0.51700200
H       -1.59391100      -0.38283500      -0.44442700
C        0.79856900       3.43861300      -0.27988300
C        1.78227200       2.32063400      -0.49070000
H        1.10617000       4.46579900      -0.07683300
C        0.89504300       1.12171000      -0.69603500
C        2.36860100       2.24669300       0.96461900
C        2.91872800       2.49165500      -1.49291100
H        1.24963400       0.14590700      -1.03442500
H        2.55794800       2.65716500      -2.51804300
H        3.54960900       1.58736900      -1.49680400
H        3.56525300       3.33738400      -1.21138200
H        1.61622300       1.81333500       1.63794300
H        2.60699000       3.25648800       1.33029700
H        3.28658500       1.64350600       1.00421100
23
Properties=species:S:1:pos:R:3 Coordinates=T from=T ORCA-job=T isoindene_irc_IRC_Full=T E=T -425.551823335375=T pbc="F F F"
C       -2.68522500       2.66281100       0.75995100
C       -2.68338500       1.27233300       0.35574900
C       -1.58379300       0.67764300      -0.18116200
C       -0.38217400       1.45439300      -0.35360600
C       -0.42490000       2.89637800      -0.03827900
C       -1.60245300       3.45888900       0.56303000
H       -1.58605600       4.49645500       0.90606400
H       -3.57711500       3.06520200       1.24648400
H       -3.59323400       0.68876200       0.51727200
H       -1.59471900      -0.38324100      -0.44378900
C        0.79853500       3.43786200      -0.28189200
C        1.78223900       2.31958400      -0.49289900
H        1.10726900       4.46439800      -0.07824700
C        0.89470700       1.12085100      -0.69845100
C        2.36517300       2.24926900       0.96455400
C        2.92072400       2.49028100      -1.49308500
H        1.24802900       0.14623900      -1.04139200
H        2.56199500       2.65636300      -2.51881900
H        3.55115400       1.58583300      -1.49618300
H        3.56695900       3.33556900      -1.21008900
H        1.61267300       1.81254200       1.63548500
H        2.59698800       3.26018400       1.33063200
H        3.28633100       1.65092600       1.00734100
23
Properties=species:S:1:pos:R:3 Coordinates=T from=T ORCA-job=T isoindene_irc_IRC_Full=T E=T -425.551530185446=T pbc="F F F"
C       -2.68410000       2.66275300       0.76158200
C       -2.68312500       1.27263900       0.35659000
C       -1.58362900       0.67715300      -0.18047000
C       -0.38205100       1.45348300      -0.35333300
C       -0.42412100       2.89497900      -0.03720700
C       -1.60024000       3.45797100       0.56604400
H       -1.58244300       4.49486600       0.91047000
H       -3.57616100       3.06600200       1.24685900
H       -3.59343000       0.68964500       0.51750500
H       -1.59554500      -0.38360500      -0.44313100
C        0.79893200       3.43689600      -0.28398000
C        1.78227100       2.31866000      -0.49514200
H        1.10852500       4.46309500      -0.07953500
C        0.89461100       1.12005000      -0.70086100
C        2.36183300       2.25159400       0.96438700
C        2.92241400       2.48891300      -1.49315700
H        1.24639800       0.14646800      -1.04847000
H        2.56600100       2.65561500      -2.51966300
H        3.55280400       1.58424900      -1.49566600
H        3.56867900       3.33387000      -1.20879800
H        1.60909500       1.81187300       1.63305900
H        2.58704700       3.26402400       1.33096100
H        3.28589800       1.65841600       1.01048000
23
Properties=species:S:1:pos:R:3 Coordinates=T from=T ORCA-job=T isoindene_irc_IRC_Full=T E=T -425.551229498236=T pbc="F F F"
C       -2.68284400       2.66274400       0.76316400
C       -2.68270400       1.27280800       0.35738100
C       -1.58374100       0.67679500      -0.17955800
C       -0.38149400       1.45231500      -0.35309100
C       -0.42292400       2.89391000      -0.03603200
C       -1.59808100       3.45678300       0.56908000
H       -1.57882600       4.49339100       0.91485800
H       -3.57536100       3.06689100       1.24704700
H       -3.59363500       0.69054400       0.51770300
H       -1.59635100      -0.38403600      -0.44250300
C        0.79895200       3.43599200      -0.28586600
C        1.78225400       2.31755600      -0.49735300
H        1.10988700       4.46158100      -0.08075200
C        0.89427800       1.11918000      -0.70319700
C        2.35841300       2.25417500       0.96430300
C        2.92434200       2.48757700      -1.49338500
H        1.24469100       0.14677900      -1.05559000
H        2.56996400       2.65490800      -2.52047500
H        3.55439200       1.58280500      -1.49523300
H        3.57027400       3.33214100      -1.20754700
H        1.60550400       1.81131600       1.63063400
H        2.57714000       3.26771800       1.33120200
H        3.28547100       1.66582300       1.01360100
23
Properties=species:S:1:pos:R:3 Coordinates=T from=T ORCA-job=T isoindene_irc_IRC_Full=T E=T -425.550920651477=T pbc="F F F"
C       -2.68172400       2.66267900       0.76477700
C       -2.68245100       1.27308300       0.35830800
C       -1.58351000       0.67622900      -0.17872000
C       -0.38131300       1.45132500      -0.35258800
C       -0.42205900       2.89242700      -0.03468100
C       -1.59579900       3.45579700       0.57222500
H       -1.57522900       4.49181500       0.91915900
H       -3.57457600       3.06782100       1.24697400
H       -3.59385100       0.69144300       0.51786200
H       -1.59718000      -0.38440000      -0.44187100
C        0.79941800       3.43500000      -0.28780600
C        1.78230700       2.31655500      -0.49960400
H        1.11141200       4.46008200      -0.08185300
C        0.89421400       1.11827400      -0.70555700
C        2.35505300       2.25658200       0.96413700
C        2.92599700       2.48625000      -1.49352500
H        1.24293700       0.14704100      -1.06279300
H        2.57389600       2.65425500      -2.52135700
H        3.55607400       1.58132600      -1.49490600
H        3.57187100       3.33051800      -1.20630100
H        1.60187600       1.81089100       1.62823900
H        2.56728600       3.27151600       1.33144400
H        3.28487900       1.67327800       1.01670400
23
Properties=species:S:1:pos:R:3 Coordinates=T from=T ORCA-job=T isoindene_irc_IRC_Full=T E=T -425.550603907201=T pbc="F F F"
C       -2.68048500       2.66264700       0.76634600
C       -2.68197400       1.27321200       0.35916900
C       -1.58359900       0.67583700      -0.17763800
C       -0.38067500       1.45008100      -0.35212100
C       -0.42074900       2.89127200      -0.03323800
C       -1.59358500       3.45455700       0.57539600
H       -1.57164100       4.49035600       0.92341100
H       -3.57394200       3.06883600       1.24671300
H       -3.59409600       0.69233800       0.51799000
H       -1.59798900      -0.38484500      -0.44129200
C        0.79947900       3.43397200      -0.28955300
C        1.78229700       2.31539400      -0.50182500
H        1.11308100       4.45842600      -0.08286900
C        0.89388400       1.11737600      -0.70780200
C        2.35162700       2.25919600       0.96403900
C        2.92786700       2.48495400      -1.49381800
H        1.24112600       0.14734400      -1.07002200
H        2.57778600       2.65364400      -2.52221200
H        3.55769600       1.57998300      -1.49466600
H        3.57334500       3.32887800      -1.20509900
H        1.59823400       1.81059100       1.62586000
H        2.55749900       3.27519200       1.33163800
H        3.28426500       1.68064700       1.01974900
23
Properties=species:S:1:pos:R:3 Coordinates=T from=T ORCA-job=T isoindene_irc_IRC_Full=T E=T -425.550277792385=T pbc="F F F"
C       -2.67935200       2.66257400       0.76795300
C       -2.68172900       1.27344800       0.36020100
C       -1.58329100       0.67519200      -0.17665400
C       -0.38044400       1.44901900      -0.35137200
C       -0.41980300       2.88969400      -0.03159800
C       -1.59125400       3.45349100       0.57867900
H       -1.56807300       4.48880800       0.92756400
H       -3.57332700       3.06989200       1.24618600
H       -3.59433200       0.69323900       0.51807500
H       -1.59882600      -0.38520500      -0.44072300
C        0.80002400       3.43293800      -0.29134800
C        1.78236100       2.31432900      -0.50409100
H        1.11493600       4.45672600      -0.08377700
C        0.89385500       1.11637900      -0.71009300
C        2.34823600       2.26168700       0.96387400
C        2.92946900       2.48367100      -1.49402500
H        1.23925300       0.14762800      -1.07731500
H        2.58165900       2.65308600      -2.52315200
H        3.55941100       1.57860500      -1.49453700
H        3.57481400       3.32733900      -1.20390300
H        1.59454400       1.81043800       1.62351600
H        2.54775700       3.27894900       1.33185900
H        3.28348400       1.68805700       1.02273600
23
Properties=species:S:1:pos:R:3 Coordinates=T from=T ORCA-job=T isoindene_irc_IRC_Full=T E=T -425.549943745321=T pbc="F F F"
C       -2.67817200       2.66248700       0.76953100
C       -2.68116600       1.27351800       0.36112900
C       -1.58338800       0.67477300      -0.17539200
C       -0.37970400       1.44769100      -0.35068000
C       -0.41837900       2.88846800      -0.02988400
C       -1.58895900       3.45222000       0.58197400
H       -1.56452900       4.48737600       0.93163200
H       -3.57285200       3.07102600       1.24547800
H       -3.59462100       0.69411800       0.51813700
H       -1.59963800      -0.38566200      -0.44023400
C        0.80011600       3.43180600      -0.29294700
C        1.78234600       2.31311600      -0.50632000
H        1.11696500       4.45490400      -0.08458900
C        0.89351800       1.11545000      -0.71222900
C        2.34479200       2.26435400       0.96376900
C        2.93128800       2.48242100      -1.49439800
H        1.23734400       0.14792400      -1.08459600
H        2.58548700       2.65256900      -2.52406200
H        3.56105400       1.57736900      -1.49449700
H        3.57615100       3.32578800      -1.20275700
H        1.59084400       1.81042100       1.62120800
H        2.53813200       3.28259100       1.33207800
H        3.28266200       1.69535500       1.02561000
23
Properties=species:S:1:pos:R:3 Coordinates=T from=T ORCA-job=T isoindene_irc_IRC_Full=T E=T -425.549598348186=T pbc="F F F"
C       -2.67698400       2.66241700       0.77113900
C       -2.68096100       1.27370500       0.36228600
C       -1.58297600       0.67403400      -0.17427800
C       -0.37942900       1.44656000      -0.34966900
C       -0.41734500       2.88679200      -0.02794900
C       -1.58662100       3.45104000       0.58540600
H       -1.56099200       4.48588300       0.93559500
H       -3.57242000       3.07220800       1.24450200
H       -3.59488300       0.69500600       0.51815100
H       -1.60049000      -0.38601800      -0.43976800
C        0.80074100       3.43072200      -0.29460200
C        1.78240700       2.31199800      -0.50861200
H        1.11922600       4.45299300      -0.08529600
C        0.89353700       1.11436700      -0.71444000
C        2.34135200       2.26695000       0.96360700
C        2.93282000       2.48117900      -1.49467300
H        1.23535600       0.14822000      -1.09194100
H        2.58932400       2.65210600      -2.52508000
H        3.56279900       1.57609100      -1.49457900
H        3.57748200       3.32433900      -1.20161700
H        1.58707900       1.81057700       1.61894400
H        2.52852600       3.28630700       1.33237400
H        3.28165800       1.70270500       1.02837700
23
Properties=species:S:1:pos:R:3 Coordinates=T from=T ORCA-job=T isoindene_irc_IRC_Full=T E=T -425.549263080501=T pbc="F F F"
C       -2.67648700       2.66201500       0.77275800
C       -2.67995300       1.27364200       0.36306800
C       -1.58344000       0.67376900      -0.17278600
C       -0.37836500       1.44522300      -0.34888700
C       -0.41613800       2.88554400      -0.02603100
C       -1.58390600       3.45018600       0.58852400
H       -1.55774600       4.48448000       0.93916500
H       -3.57200600       3.07334500       1.24339700
H       -3.59528900       0.69576600       0.51817600
H       -1.60124100      -0.38650600      -0.43944000
C        0.80093100       3.42969500      -0.29597100
C        1.78237000       2.31080500      -0.51070100
H        1.12149400       4.45108000      -0.08588000
C        0.89305200       1.11353800      -0.71627100
C        2.33810700       2.26951800       0.96351800
C        2.93450200       2.48006300      -1.49511900
H        1.23350700       0.14844000      -1.09877600
H        2.59287000       2.65170300      -2.52598400
H        3.56434100       1.57504000      -1.49472800
H        3.57858700       3.32296000      -1.20060500
H        1.58356000       1.81084600       1.61688100
H        2.51969500       3.28967300       1.33269100
H        3.28068000       1.70944200       1.03081300
23
Properties=species:S:1:pos:R:3 Coordinates=T from=T ORCA-job=T isoindene_irc_IRC_Full=T E=T -425.548948019155=T pbc="F F F"
C       -2.67563700       2.66201500       0.77417300
C       -2.67926500       1.27384800       0.36399200
C       -1.58340200       0.67343100      -0.17158200
C       -0.37793000       1.44430600      -0.34788900
C       -0.41536000       2.88376300      -0.02424300
C       -1.58227100       3.44921600       0.59167400
H       -1.55478900       4.48321300       0.94229800
H       -3.57149800       3.07433000       1.24215600
H       -3.59572300       0.69637500       0.51817400
H       -1.60194100      -0.38697900      -0.43919100
C        0.80153500       3.42772500      -0.29755800
C        1.78258700       2.30976700      -0.51298000
H        1.12392800       4.45009200      -0.08616600
C        0.89301400       1.11331600      -0.71781500
C        2.33528200       2.27151600       0.96335100
C        2.93518700       2.47901500      -1.49503300
H        1.23186600       0.14837800      -1.10506100
H        2.59606500       2.65140200      -2.52704000
H        3.56594900       1.57388400      -1.49496000
H        3.57976300       3.32196800      -1.19966800
H        1.58033500       1.81122000       1.61508400
H        2.51178100       3.29293800       1.33313700
H        3.27958200       1.71560600       1.03290500
23
Properties=species:S:1:pos:R:3 Coordinates=T from=T ORCA-job=T isoindene_irc_IRC_Full=T E=T -425.548693692849=T pbc="F F F"
C       -2.67516600       2.66227600       0.77519300
C       -2.67866900       1.27428000       0.36465600
C       -1.58316800       0.67323900      -0.17086400
C       -0.37809700       1.44418900      -0.34699800
C       -0.41548600       2.88171100      -0.02305000
C       -1.58175200       3.44875500       0.59401100
H       -1.55286900       4.48224100       0.94423800
H       -3.57082400       3.07484100       1.24110600
H       -3.59620800       0.69662000       0.51819000
H       -1.60240700      -0.38740100      -0.43907400
C        0.80257700       3.42518000      -0.29908200
C        1.78310900       2.30918800      -0.51497300
H        1.12584000       4.45041600      -0.08611000
C        0.89332400       1.11400300      -0.71862400
C        2.33359400       2.27240900       0.96313500
C        2.93448600       2.47829100      -1.49425300
H        1.23091400       0.14790900      -1.10929600
H        2.59811700       2.65126700      -2.52803600
H        3.56729200       1.57280500      -1.49517600
H        3.58080700       3.32164100      -1.19901600
H        1.57822100       1.81153100       1.61397400
H        2.50669900       3.29530300       1.33355900
H        3.27867800       1.71970000       1.03421400
23
Properties=species:S:1:pos:R:3 Coordinates=T from=T ORCA-job=T isoindene_irc_IRC_Full=T E=T -425.547281075315=T pbc="F F F"
C       -2.67012400       2.66113200       0.78113000
C       -2.67812600       1.27331100       0.36929500
C       -1.58240500       0.67016500      -0.16575300
C       -0.37489700       1.43774700      -0.34208000
C       -0.40790400       2.87769200      -0.01283000
C       -1.57181200       3.44208600       0.60723100
H       -1.54069000       4.47814500       0.95489900
H       -3.57202800       3.08063400       1.23396100
H       -3.59671100       0.69979800       0.51760900
H       -1.60520200      -0.38829800      -0.43882100
C        0.80267300       3.42363200      -0.30106200
C        1.78151900       2.30440400      -0.52201100
H        1.13919100       4.43754000      -0.08755200
C        0.89211800       1.10714100      -0.72574300
C        2.31914800       2.28527300       0.96376800
C        2.94256300       2.47457300      -1.49855200
H        1.22267500       0.14959700      -1.13441600
H        2.61285300       2.65012300      -2.53262400
H        3.57253700       1.57037300      -1.49842100
H        3.58268900       3.31659500      -1.19592400
H        1.56332900       1.81708300       1.60877200
H        2.47499900       3.30695300       1.33998200
H        3.27234700       1.74500100       1.03676600
23
Properties=species:S:1:pos:R:3 Coordinates=T from=T ORCA-job=T isoindene_irc_IRC_Full=T E=T -425.545447320905=T pbc="F F F"
C       -2.66681400       2.66015200       0.78700600
C       -2.67663900       1.27395000       0.37365200
C       -1.58090000       0.66785100      -0.16169100
C       -0.37312200       1.43263600      -0.33653200
C       -0.40330900       2.86815600       0.00122600
C       -1.56327100       3.43547900       0.62272800
H       -1.52948400       4.47360700       0.96132100
H       -3.57228900       3.08646500       1.22520900
H       -3.59775400       0.70248500       0.51722500
H       -1.60706900      -0.38930200      -0.43914400
C        0.80660600       3.41540900      -0.30131800
C        1.77989600       2.29963500      -0.53211000
H        1.15838600       4.42716000      -0.08798300
C        0.89248700       1.10270400      -0.73386900
C        2.30327400       2.29851400       0.96531700
C        2.94514900       2.47059500      -1.50128100
H        1.21518500       0.14765300      -1.15819100
H        2.62937600       2.64925400      -2.54053600
H        3.57881100       1.56742300      -1.50458800
H        3.58377800       3.31312200      -1.19328800
H        1.54719800       1.82669900       1.60831100
H        2.44806200       3.31976200       1.35580800
H        3.26093600       1.77156600       1.03032700
23
Properties=species:S:1:pos:R:3 Coordinates=T from=T ORCA-job=T isoindene_irc_IRC_Full=T E=T -425.543088912133=T pbc="F F F"
C       -2.66474500       2.65958500       0.79026300
C       -2.67596400       1.27432100       0.37725400
C       -1.57958700       0.66670300      -0.15821700
C       -0.37074800       1.42748200      -0.33380100
C       -0.39674700       2.85858500       0.01817500
C       -1.55485800       3.42880500       0.63554100
H       -1.52101200       4.46961000       0.96386300
H       -3.57250900       3.09129600       1.21829600
H       -3.59794500       0.70536900       0.51684500
H       -1.60755600      -0.38856600      -0.43930100
C        0.81156400       3.40919400      -0.29288900
C        1.77684400       2.29351600      -0.54265900
H        1.17654700       4.41358100      -0.09002900
C        0.89150700       1.09730300      -0.74651400
C        2.28503600       2.31599800       0.97011700
C        2.94891400       2.46700800      -1.50688700
H        1.20946000       0.14341200      -1.17640700
H        2.64505800       2.64887200      -2.54984000
H        3.58439700       1.56513200      -1.51162700
H        3.58197200       3.30935500      -1.19134600
H        1.53221700       1.83629300       1.61238200
H        2.43070500       3.33220000       1.37807700
H        3.24571100       1.79616200       1.01631400
23
Properties=species:S:1:pos:R:3 Coordinates=T from=T ORCA-job=T isoindene_irc_IRC_Full=T E=T -425.539963916687=T pbc="F F F"
C       -2.66347600       2.65936000       0.79130600
C       -2.67476900       1.27587300       0.38000900
C       -1.57861700       0.66724800      -0.15468300
C       -0.36967900       1.42421700      -0.33249800
C       -0.38885800       2.84896100       0.03506100
C       -1.54830900       3.42300300       0.64459700
H       -1.51518400       4.46604600       0.96430700
H       -3.57186900       3.09430500       1.21336900
H       -3.59847600       0.70743100       0.51653700
H       -1.60707600      -0.38675900      -0.43933900
C        0.81897200       3.39586100      -0.27715700
C        1.77341600       2.28624900      -0.55762800
H        1.19232300       4.40318100      -0.09287700
C        0.88975800       1.09456800      -0.76233100
C        2.26687300       2.33432000       0.97747200
C        2.95174300       2.46327800      -1.51336300
H        1.20593300       0.13754400      -1.18941600
H        2.65791100       2.64929200      -2.56011100
H        3.58977400       1.56220300      -1.51773100
H        3.57928100       3.30669700      -1.18930100
H        1.51950100       1.84342500       1.61900800
H        2.42217400       3.34660500       1.40323200
H        3.22670800       1.81850100       0.99915300
23
Properties=species:S:1:pos:R:3 Coordinates=T from=T ORCA-job=T isoindene_irc_IRC_Full=T E=T -425.535917513110=T pbc="F F F"
C       -2.66245300       2.65918200       0.79109300
C       -2.67504300       1.27739100       0.38231000
C       -1.57715100       0.66821200      -0.15171900
C       -0.36885800       1.42286700      -0.33180300
C       -0.38434400       2.83923600       0.05112500
C       -1.54142500       3.41827300       0.64964400
H       -1.51144500       4.46306400       0.96399100
H       -3.57134100       3.09603300       1.21023400
H       -3.59858500       0.70915500       0.51622200
H       -1.60627100      -0.38429800      -0.43920600
C        0.83407200       3.38410200      -0.25567200
C        1.76818800       2.27713700      -0.57972400
H        1.20304900       4.39162100      -0.09673200
C        0.88698300       1.09214200      -0.77905900
C        2.24935600       2.35423300       0.98807500
C        2.95565200       2.46024400      -1.52097400
H        1.20392600       0.13241000      -1.19808800
H        2.66767800       2.65003700      -2.56890400
H        3.59410700       1.55937200      -1.52224800
H        3.57602800       3.30446500      -1.18731600
H        1.50911900       1.84770000       1.62644800
H        2.41949200       3.36150300       1.42775600
H        3.20714900       1.83748600       0.98214800
23
Properties=species:S:1:pos:R:3 Coordinates=T from=T ORCA-job=T isoindene_irc_IRC_Full=T E=T -425.530970886478=T pbc="F F F"
C       -2.66227200       2.65834800       0.79036600
C       -2.67518300       1.27976800       0.38417100
C       -1.57550700       0.66987200      -0.14933300
C       -0.37009400       1.42327300      -0.33039200
C       -0.37682200       2.83138700       0.06380400
C       -1.53626100       3.41465400       0.65257600
H       -1.50893800       4.46070400       0.96347000
H       -3.57073300       3.09688600       1.20819200
H       -3.59906200       0.71018700       0.51604200
H       -1.60544200      -0.38219700      -0.43909900
C        0.85085900       3.36595300      -0.22981000
C        1.76072000       2.26681800      -0.61141700
H        1.21103800       4.38384000      -0.10055600
C        0.88567900       1.09128800      -0.79490800
C        2.23324200       2.37453900       1.00197500
C        2.95918400       2.45722900      -1.52779400
H        1.20286000       0.12841200      -1.20378200
H        2.67476800       2.65086400      -2.57561500
H        3.59753200       1.55684400      -1.52540800
H        3.57317900       3.30295000      -1.18543900
H        1.50121800       1.85013500       1.63333700
H        2.42017000       3.37602500       1.45018600
H        3.18761000       1.85391400       0.96700300
23
Properties=species:S:1:pos:R:3 Coordinates=T from=T ORCA-job=T isoindene_irc_IRC_Full=T E=T -425.525781249439=T pbc="F F F"
C       -2.66239700       2.65714000       0.78937100
C       -2.67594000       1.28199000       0.38574900
C       -1.57407800       0.67143700      -0.14749400
C       -0.37148700       1.42473700      -0.32871500
C       -0.37229900       2.82421800       0.07550000
C       -1.53063700       3.41161600       0.65351900
H       -1.50733400       4.45887900       0.96300600
H       -3.57046500       3.09731200       1.20698100
H       -3.59932100       0.71097600       0.51588500
H       -1.60470700      -0.38030300      -0.43895400
C        0.87311200       3.34886700      -0.20295200
C        1.75160200       2.25681600      -0.64701000
H        1.21587100       4.37613500      -0.10429000
C        0.88444700       1.09080300      -0.80961100
C        2.21482800       2.39728900       1.01814600
C        2.96296000       2.45455400      -1.53411800
H        1.20249000       0.12511200      -1.20765700
H        2.67984000       2.65167900      -2.58062600
H        3.60014600       1.55468600      -1.52749200
H        3.57065000       3.30175200      -1.18373700
H        1.49588000       1.85149400       1.63876000
H        2.42217300       3.38841900       1.46892200
H        3.17229300       1.86620400       0.95435000
23
Properties=species:S:1:pos:R:3 Coordinates=T from=T ORCA-job=T isoindene_irc_IRC_Full=T E=T -425.521352754904=T pbc="F F F"
C       -2.66334200       2.65512100       0.78830800
C       -2.67744000       1.28499500       0.38729100
C       -1.57172200       0.67318300      -0.14661000
C       -0.37452900       1.42727700      -0.32624600
C       -0.37054100       2.81663300       0.08452700
C       -1.52535800       3.40944700       0.65321400
H       -1.50665800       4.45792100       0.96275900
H       -3.57040200       3.09741900       1.20647900
H       -3.59942900       0.71135500       0.51576800
H       -1.60431100      -0.37933400      -0.43888200
C        0.90088100       3.33205100      -0.17413800
C        1.73873600       2.24480000      -0.69207700
H        1.21797700       4.37253400      -0.10694900
C        0.88558000       1.09139600      -0.82135000
C        2.20223700       2.41850400       1.03447400
C        2.96630600       2.45235600      -1.53801100
H        1.20250800       0.12388200      -1.20939600
H        2.68205900       2.65214100      -2.58214100
H        3.60152500       1.55344400      -1.52818600
H        3.56961300       3.30118800      -1.18261100
H        1.49183400       1.85057000       1.64258000
H        2.42317600       3.39917200       1.48064900
H        3.15880400       1.87591900       0.94804300
23
Properties=species:S:1:pos:R:3 Coordinates=T from=T ORCA-job=T isoindene_irc_IRC_Full=T E=T -425.519493819177=T pbc="F F F"
C       -2.66439400       2.65298400       0.78745300
C       -2.67887500       1.28746800       0.38852300
C       -1.56970400       0.67461400      -0.14641400
C       -0.37799000       1.42925700      -0.32381500
C       -0.37079700       2.81147800       0.09023900
C       -1.52126000       3.40795200       0.65255000
H       -1.50290100       4.45626000       0.96303100
H       -3.57071100       3.09791400       1.20439900
H       -3.60062200       0.71302000       0.51534400
H       -1.60257700      -0.37767100      -0.43967200
C        0.92456800       3.31753200      -0.15346500
C        1.72786400       2.23585200      -0.72575900
H        1.22817100       4.36380000      -0.12612600
C        0.88825100       1.09215500      -0.82942800
C        2.18463200       2.44443800       1.05085700
C        2.96854200       2.45003300      -1.54037900
H        1.19995100       0.12279600      -1.21658500
H        2.69451800       2.65560400      -2.58625800
H        3.60550700       1.55243800      -1.53158100
H        3.56503100       3.29922600      -1.17491200
H        1.49065800       1.84926600       1.65045000
H        2.42632000       3.40209700       1.53333400
H        3.13300700       1.90529500       0.90501400
23
Properties=species:S:1:pos:R:3 Coordinates=T from=T ORCA-job=T isoindene_irc_IRC_Full=T E=T -425.521539473115=T pbc="F F F"
C       -2.66544500       2.65084800       0.78659900
C       -2.68031000       1.28994100       0.38975400
C       -1.56768600       0.67604500      -0.14621800
C       -0.38145000       1.43123700      -0.32138500
C       -0.37105300       2.80632400       0.09595000
C       -1.51716200       3.40645700       0.65188600
H       -1.49914400       4.45459800       0.96330200
H       -3.57101900       3.09841000       1.20232000
H       -3.60181500       0.71468500       0.51492100
H       -1.60084200      -0.37600800      -0.44046100
C        0.94825500       3.30301300      -0.13279200
C        1.71699100       2.22690400      -0.75944000
H        1.23836600       4.35506700      -0.14530400
C        0.89092300       1.09291500      -0.83750600
C        2.16702600       2.47037100       1.06724000
C        2.97077700       2.44771000      -1.54274600
H        1.19739300       0.12171000      -1.22377300
H        2.70697800       2.65906700      -2.59037500
H        3.60948900       1.55143300      -1.53497600
H        3.56045000       3.29726400      -1.16721300
H        1.48948300       1.84796100       1.65832000
H        2.42946500       3.40502200       1.58601900
H        3.10721000       1.93467100       0.86198600
23
Properties=species:S:1:pos:R:3 Coordinates=T from=T ORCA-job=T isoindene_irc_IRC_Full=T E=T -425.527960699430=T pbc="F F F"
C       -2.66696100       2.64783300       0.78524900
C       -2.68223500       1.29288300       0.39152800
C       -1.56614900       0.67700900      -0.14613900
C       -0.38609300       1.43303700      -0.31780500
C       -0.36779500       2.79931300       0.10468800
C       -1.51155600       3.40524700       0.65135900
H       -1.49813100       4.45332000       0.96312600
H       -3.57075600       3.09837000       1.20182500
H       -3.60224600       0.71495500       0.51503400
H       -1.60036100      -0.37478800      -0.44044800
C        0.98597400       3.28166800      -0.09905500
C        1.70375000       2.21724300      -0.80905700
H        1.23910600       4.34796500      -0.14895300
C        0.89129900       1.09469100      -0.85007400
C        2.15004500       2.48953200       1.07668800
C        2.97287800       2.44527100      -1.54694100
H        1.19726400       0.11928800      -1.22584000
H        2.70994400       2.65974700      -2.59279500
H        3.61142200       1.54969400      -1.53610400
H        3.55828500       3.29584800      -1.16608300
H        1.48805800       1.84914700       1.66261600
H        2.43493400       3.41860200       1.60582800
H        3.08643400       1.94964800       0.85747000
23
Properties=species:S:1:pos:R:3 Coordinates=T from=T ORCA-job=T isoindene_irc_IRC_Full=T E=T -425.535814160833=T pbc="F F F"
C       -2.66728200       2.64559900       0.78380800
C       -2.68401300       1.29505600       0.39313900
C       -1.56446600       0.67829300      -0.14615300
C       -0.38993300       1.43395000      -0.31483300
C       -0.36495000       2.79363800       0.11348200
C       -1.50586900       3.40354800       0.65107900
H       -1.49683800       4.45208500       0.96309200
H       -3.57038500       3.09844700       1.20111700
H       -3.60287500       0.71523400       0.51524600
H       -1.59995200      -0.37397600      -0.44071200
C        1.01416900       3.26376700      -0.07528500
C        1.69318800       2.21065700      -0.84295300
H        1.24094300       4.33975000      -0.15204400
C        0.89165100       1.09539200      -0.86220700
C        2.13148900       2.51824400       1.09169500
C        2.97520200       2.44217300      -1.55235500
H        1.19643300       0.11703200      -1.22825200
H        2.71411100       2.66058300      -2.59662500
H        3.61321800       1.54833900      -1.53781200
H        3.55568900       3.29459500      -1.16482000
H        1.48750500       1.85157000       1.66698200
H        2.43797600       3.42112500       1.62144700
H        3.07224800       1.96035000       0.84910600
23
Properties=species:S:1:pos:R:3 Coordinates=T from=T ORCA-job=T isoindene_irc_IRC_Full=T E=T -425.544564656623=T pbc="F F F"
C       -2.66697000       2.64415800       0.78229100
C       -2.68567600       1.29646500       0.39459500
C       -1.56350000       0.67941300      -0.14613600
C       -0.39321500       1.43400800      -0.31170900
C       -0.35962000       2.78809700       0.12337200
C       -1.50027900       3.40120100       0.65134700
H       -1.49496000       4.45057300       0.96316500
H       -3.56969400       3.09857000       1.20006700
H       -3.60366100       0.71564900       0.51557900
H       -1.59949000      -0.37291700      -0.44118200
C        1.04268900       3.24455400      -0.05105800
C        1.68312900       2.20602900      -0.87692500
H        1.24340400       4.32873300      -0.15543800
C        0.89034300       1.09518600      -0.87570600
C        2.11539100       2.54439500       1.10361200
C        2.97748100       2.43881700      -1.55896800
H        1.19504400       0.11424700      -1.23164500
H        2.71983100       2.66162100      -2.60193600
H        3.61559200       1.54649400      -1.54020700
H        3.55204800       3.29262500      -1.16345400
H        1.48649700       1.85496200       1.67368900
H        2.44169700       3.42656600       1.64244300
H        3.05133000       1.97593200       0.84039300
23
Properties=species:S:1:pos:R:3 Coordinates=T from=T ORCA-job=T isoindene_irc_IRC_Full=T E=T -425.552967152360=T pbc="F F F"
C       -2.66552200       2.64403600       0.78077400
C       -2.68776300       1.29684000       0.39594200
C       -1.56187400       0.68113700      -0.14623900
C       -0.39718700       1.43287900      -0.30824300
C       -0.35331800       2.78304400       0.13423200
C       -1.49472500       3.39754500       0.65186600
H       -1.49264400       4.44917000       0.96344000
H       -3.56880800       3.09874700       1.19876000
H       -3.60440500       0.71627300       0.51599000
H       -1.59911800      -0.37203400      -0.44191800
C        1.06972400       3.22536600      -0.02812200
C        1.67429000       2.20273500      -0.90918600
H        1.24640800       4.31616600      -0.15879900
C        0.88843000       1.09395000      -0.89024800
C        2.09949600       2.56993800       1.11460800
C        2.97940800       2.43513300      -1.56623000
H        1.19302100       0.11145200      -1.23576100
H        2.72671900       2.66284600      -2.60855800
H        3.61827000       1.54438200      -1.54310800
H        3.54776300       3.29021200      -1.16206600
H        1.48561200       1.85925100       1.68167400
H        2.44538000       3.43272600       1.66596400
H        3.02841000       1.99351500       0.83148200
23
Properties=species:S:1:pos:R:3 Coordinates=T from=T ORCA-job=T isoindene_irc_IRC_Full=T E=T -425.560190220860=T pbc="F F F"
C       -2.66566300       2.64087800       0.77880400
C       -2.68788100       1.29930300       0.39739800
C       -1.56446400       0.67986800      -0.14595700
C       -0.39507300       1.43309500      -0.30544800
C       -0.34436200       2.77530000       0.14559100
C       -1.48721900       3.39739600       0.65416900
H       -1.48952900       4.44584200       0.96352000
H       -3.56707100       3.09930300       1.19687400
H       -3.60618700       0.71646900       0.51664700
H       -1.59859800      -0.37018400      -0.44294200
C        1.09147700       3.21068700      -0.01008900
C        1.66594600       2.19894800      -0.93643900
H        1.25024900       4.29937200      -0.16170800
C        0.88324100       1.09567000      -0.90465900
C        2.08416900       2.58936700       1.12526800
C        2.98105300       2.43179200      -1.57534700
H        1.19047300       0.10643500      -1.24231800
H        2.73602200       2.66436300      -2.61747800
H        3.62156400       1.54152700      -1.54692100
H        3.54219700       3.28670700      -1.16081700
H        1.48612500       1.86669500       1.69096900
H        2.44906600       3.44136400       1.69425300
H        3.00217800       2.01504500       0.82298100
23
Properties=species:S:1:pos:R:3 Coordinates=T from=T ORCA-job=T isoindene_irc_IRC_Full=T E=T -425.565985105352=T pbc="F F F"
C       -2.66148000       2.64292300       0.77746400
C       -2.68988600       1.29790800       0.39839500
C       -1.56257900       0.68182000      -0.14596800
C       -0.39773200       1.42922800      -0.30144800
C       -0.33640300       2.77009800       0.15826000
C       -1.48074600       3.39127500       0.65676700
H       -1.48520300       4.44396400       0.96447900
H       -3.56488500       3.10012700       1.19433400
H       -3.60725100       0.71763600       0.51737000
H       -1.59866300      -0.36961200      -0.44492300
C        1.10469600       3.19679700       0.00004700
C        1.66083200       2.19788600      -0.95595800
H        1.25547500       4.28368200      -0.16449500
C        0.87957500       1.09318000      -0.92115800
C        2.07368200       2.61159400       1.13941400
C        2.98167800       2.42727700      -1.58507200
H        1.18556800       0.10342500      -1.25059000
H        2.74777400       2.66615500      -2.62892200
H        3.62479500       1.53877200      -1.55189200
H        3.53568900       3.28233900      -1.15986400
H        1.48568700       1.87480600       1.70322700
H        2.44929100       3.44644500       1.72210000
H        2.97792700       2.03743600       0.81492900
23
Properties=species:S:1:pos:R:3 Coordinates=T from=T ORCA-job=T isoindene_irc_IRC_Full=T E=T -425.570833016567=T pbc="F F F"
C       -2.65896900       2.64083400       0.77626100
C       -2.68970300       1.29921900       0.39967200
C       -1.56412500       0.68043900      -0.14537600
C       -0.39493600       1.42632900      -0.29821900
C       -0.32848100       2.76092900       0.16965000
C       -1.47247300       3.38893800       0.66211900
H       -1.47916700       4.43965400       0.96543100
H       -3.56124500       3.10178100       1.19076900
H       -3.60919200       0.71879800       0.51826200
H       -1.59889200      -0.36818000      -0.44768300
C        1.11421200       3.18662100       0.00784500
C        1.65619700       2.19391300      -0.97265400
H        1.26150600       4.26766600      -0.16822000
C        0.87350400       1.09341600      -0.93633900
C        2.06200700       2.62886900       1.15428300
C        2.98147000       2.42292300      -1.59617300
H        1.17906800       0.09909900      -1.26304300
H        2.76266000       2.66796400      -2.64249700
H        3.62812200       1.53558900      -1.55835300
H        3.52805400       3.27655200      -1.15945200
H        1.48593300       1.88624900       1.71807200
H        2.44783100       3.45469500       1.75453400
H        2.95458000       2.06276000       0.80781000
23
Properties=species:S:1:pos:R:3 Coordinates=T from=T ORCA-job=T isoindene_irc_IRC_Full=T E=T -425.574620051544=T pbc="F F F"
C       -2.65387800       2.64131300       0.77659600
C       -2.69000100       1.29808000       0.40071100
C       -1.56353200       0.67957600      -0.14469500
C       -0.39524200       1.42097200      -0.29470500
C       -0.32242800       2.75390700       0.17946000
C       -1.46498600       3.38190700       0.66794600
H       -1.47107700       4.43629000       0.96767200
H       -3.55709400       3.10426800       1.18652600
H       -3.61053900       0.72103400       0.51898700
H       -1.60002300      -0.36793600      -0.45169800
C        1.11904500       3.17724400       0.01200700
C        1.65288400       2.19073400      -0.98323800
H        1.26755500       4.25556700      -0.17333400
C        0.86956500       1.09058400      -0.95070400
C        2.05419700       2.64830300       1.17057000
C        2.98080900       2.41772600      -1.60745900
H        1.16958900       0.09670000      -1.27932500
H        2.77950200       2.66946600      -2.65699200
H        3.63071000       1.53272000      -1.56629100
H        3.52017300       3.26985400      -1.15977400
H        1.48468600       1.89776800       1.73637300
H        2.44112700       3.46093200       1.78473300
H        2.93701100       2.08791800       0.80358500
23
Properties=species:S:1:pos:R:3 Coordinates=T from=T ORCA-job=T isoindene_irc_IRC_Full=T E=T -425.577731619817=T pbc="F F F"
C       -2.64920800       2.63970300       0.77838400
C       -2.68939000       1.29736300       0.40219600
C       -1.56374400       0.67709000      -0.14371300
C       -0.39363200       1.41490500      -0.29251300
C       -0.31719900       2.74542000       0.18669600
C       -1.45703700       3.37690700       0.67551500
H       -1.46043300       4.43074200       0.97090100
H       -3.55199700       3.10778400       1.18164500
H       -3.61220800       0.72384100       0.51946000
H       -1.60215300      -0.36848100      -0.45701100
C        1.12324000       3.17125300       0.01611400
C        1.65165700       2.18591600      -0.99183500
H        1.27256500       4.24514900      -0.18044400
C        0.86414000       1.08842000      -0.96169500
C        2.04457300       2.66185900       1.18559000
C        2.97895100       2.41259600      -1.61866100
H        1.15748400       0.09434000      -1.30150100
H        2.79770700       2.67030700      -2.67153800
H        3.63272300       1.52929000      -1.57580700
H        3.51262100       3.26221300      -1.16095000
H        1.48425700       1.91216500       1.75624200
H        2.43053200       3.47135500       1.81582400
H        2.92464400       2.11461700       0.80437500
23
Properties=species:S:1:pos:R:3 Coordinates=T from=T ORCA-job=T isoindene_irc_IRC_Full=T E=T -425.580278184213=T pbc="F F F"
C       -2.64396200       2.63789000       0.78151500
C       -2.68827700       1.29616800       0.40411400
C       -1.56432400       0.67356500      -0.14295900
C       -0.39304400       1.40947500      -0.29068400
C       -0.31227100       2.73781000       0.19177900
C       -1.44894500       3.37041700       0.68275300
H       -1.44770400       4.42512300       0.97611800
H       -3.54681800       3.11191000       1.17709500
H       -3.61398300       0.72704400       0.51943900
H       -1.60549600      -0.36990500      -0.46320800
C        1.12598900       3.16495500       0.01809400
C        1.65044100       2.18079100      -0.99676900
H        1.27580900       4.23700500      -0.18886500
C        0.86119800       1.08506900      -0.97142700
C        2.03872600       2.67833300       1.20106800
C        2.97786200       2.40704600      -1.62887600
H        1.14249300       0.09398900      -1.32830300
H        2.81445400       2.67030800      -2.68455900
H        3.63376600       1.52534200      -1.58620300
H        3.50670600       3.25432400      -1.16288300
H        1.48262800       1.92535400       1.77690600
H        2.41367500       3.48185700       1.84142800
H        2.91913700       2.14067700       0.81210300
23
Properties=species:S:1:pos:R:3 Coordinates=T from=T ORCA-job=T isoindene_irc_IRC_Full=T E=T -425.582480489526=T pbc="F F F"
C       -2.63840100       2.63621700       0.78556000
C       -2.68695700       1.29507900       0.40631100
C       -1.56461500       0.66983600      -0.14288600
C       -0.39212900       1.40310300      -0.29044600
C       -0.30805800       2.73019800       0.19555600
C       -1.44095100       3.36422300       0.69012300
H       -1.43339500       4.41859400       0.98323000
H       -3.54106900       3.11590100       1.17338800
H       -3.61611800       0.73023300       0.51898400
H       -1.60995600      -0.37144500      -0.46978200
C        1.12958000       3.15909700       0.02027700
C        1.65129400       2.17461800      -1.00046000
H        1.27701300       4.22940200      -0.19841000
C        0.85750500       1.08197800      -0.98012200
C        2.03132100       2.69088000       1.21438700
C        2.97734400       2.40137300      -1.63779500
H        1.12571400       0.09494400      -1.35915600
H        2.82794800       2.66938200      -2.69504000
H        3.63408000       1.52036500      -1.59680400
H        3.50331500       3.24630000      -1.16538500
H        1.48188500       1.93919000       1.79526100
H        2.39304400       3.49806500       1.86405300
H        2.91955400       2.16680700       0.82735800
23
Properties=species:S:1:pos:R:3 Coordinates=T from=T ORCA-job=T isoindene_irc_IRC_Full=T E=T -425.584406071478=T pbc="F F F"
C       -2.63274700       2.63450700       0.78965100
C       -2.68601000       1.29338700       0.40801700
C       -1.56605400       0.66692100      -0.14320500
C       -0.39196800       1.39784900      -0.29143200
C       -0.30324500       2.72293000       0.19841800
C       -1.43263900       3.35771000       0.69692300
H       -1.41879700       4.41218600       0.99202900
H       -3.53547200       3.11938700       1.17158800
H       -3.61726100       0.73378700       0.51809600
H       -1.61516600      -0.37316600      -0.47628100
C        1.13211700       3.15305200       0.02019700
C        1.65275700       2.16843700      -1.00173000
H        1.27668900       4.22111900      -0.20773000
C        0.85504200       1.07912900      -0.98955600
C        2.02791700       2.70559600       1.22783400
C        2.97728600       2.39559200      -1.64431000
H        1.10859900       0.09702500      -1.39137600
H        2.83656300       2.66779400      -2.70286000
H        3.63446000       1.51410700      -1.60675200
H        3.50290100       3.23827000      -1.16810500
H        1.48050000       1.95058300       1.81102800
H        2.36819900       3.51580900       1.88022800
H        2.92409800       2.19219600       0.84818900
23
Properties=species:S:1:pos:R:3 Coordinates=T from=T ORCA-job=T isoindene_irc_IRC_Full=T E=T -425.586039133373=T pbc="F F F"
C       -2.62772100       2.63421200       0.79409400
C       -2.68421300       1.29359100       0.40918300
C       -1.56586300       0.66411200      -0.14546500
C       -0.39142100       1.39190500      -0.29445200
C       -0.30050900       2.71588200       0.20028900
C       -1.42546500       3.35240700       0.70384100
H       -1.40504700       4.40506800       1.00135000
H       -3.52901000       3.12158500       1.17138400
H       -3.61974900       0.73605600       0.51730900
H       -1.62062900      -0.37404100      -0.48213200
C        1.13698900       3.14617000       0.02343400
C        1.65534100       2.16074600      -1.00316500
H        1.27581000       4.21458900      -0.21710500
C        0.85109700       1.07653200      -0.99820600
C        2.01981900       2.71549200       1.23661100
C        2.97898600       2.38965500      -1.64981500
H        1.09298400       0.10040700      -1.42197000
H        2.84076800       2.66545900      -2.70698500
H        3.63407000       1.50817800      -1.61549300
H        3.50471700       3.23012200      -1.17072700
H        1.48079300       1.96183800       1.82265600
H        2.34387600       3.53791500       1.89439900
H        2.93193000       2.21635600       0.87058100
23
Properties=species:S:1:pos:R:3 Coordinates=T from=T ORCA-job=T isoindene_irc_IRC_Full=T E=T -425.586414954854=T pbc="F F F"
C       -2.62655000       2.63347100       0.79480300
C       -2.68440400       1.29282300       0.40918700
C       -1.56702400       0.66397200      -0.14570600
C       -0.39176600       1.39133300      -0.29504900
C       -0.29900300       2.71469700       0.20064600
C       -1.42354000       3.35081700       0.70498700
H       -1.40211600       4.40397100       1.00369500
H       -3.52802900       3.12217800       1.17193600
H       -3.61922000       0.73714300       0.51700300
H       -1.62183900      -0.37443300      -0.48350500
C        1.13674600       3.14521700       0.02201000
C        1.65569200       2.15965400      -1.00248400
H        1.27559100       4.21222500      -0.21876800
C        0.85118900       1.07634600      -1.00045500
C        2.02090700       2.71922300       1.24006400
C        2.97874800       2.38833500      -1.65023400
H        1.08981200       0.10081600      -1.42849600
H        2.84110100       2.66497500      -2.70802700
H        3.63445800       1.50631600      -1.61732900
H        3.50546300       3.22832800      -1.17117900
H        1.48050400       1.96347500       1.82514600
H        2.33764800       3.54140100       1.89581900
H        2.93313600       2.22200100       0.87573200
23
Properties=species:S:1:pos:R:3 Coordinates=T from=T ORCA-job=T isoindene_irc_IRC_Full=T E=T -425.587140798528=T pbc="F F F"
C       -2.62414700       2.63173100       0.79636500
C       -2.68417800       1.29327300       0.40960600
C       -1.56845600       0.66243800      -0.14709400
C       -0.39153100       1.39048100      -0.29661400
C       -0.29666200       2.71102500       0.20085000
C       -1.42006700       3.34878400       0.70810600
H       -1.39588400       4.40073700       1.00855100
H       -3.52548500       3.12321800       1.17311800
H       -3.61944200       0.73858500       0.51647700
H       -1.62447200      -0.37472900      -0.48632200
C        1.13762400       3.14249800       0.02155000
C        1.65722100       2.15713500      -1.00195800
H        1.27522200       4.20824200      -0.22275400
C        0.84991800       1.07451400      -1.00500800
C        2.02041900       2.72642900       1.24545100
C        2.97902700       2.38535900      -1.65164000
H        1.08309900       0.10251200      -1.44216200
H        2.84164900       2.66374900      -2.70953200
H        3.63476000       1.50279500      -1.62120300
H        3.50709600       3.22432100      -1.17217400
H        1.48021000       1.96724200       1.83025700
H        2.32475600       3.55021800       1.89977800
H        2.93671800       2.23385000       0.88654400
23
Properties=species:S:1:pos:R:3 Coordinates=T from=T ORCA-job=T isoindene_irc_IRC_Full=T E=T -425.587908106737=T pbc="F F F"
C       -2.62164100       2.63128400       0.79865500
C       -2.68346900       1.29352500       0.40971500
C       -1.56898200       0.66149400      -0.14906900
C       -0.39166300       1.38806400      -0.29900200
C       -0.29518200       2.70765400       0.20126700
C       -1.41635200       3.34604200       0.71151400
H       -1.38902700       4.39696700       1.01412300
H       -3.52199700       3.12388100       1.17460200
H       -3.62031500       0.73986600       0.51597000
H       -1.62750200      -0.37497300      -0.48956900
C        1.13971700       3.13900500       0.02242700
C        1.65868400       2.15302400      -1.00176700
H        1.27485000       4.20455400      -0.22752000
C        0.84831500       1.07350000      -1.00960300
C        2.01708300       2.73178800       1.24973000
C        2.97999200       2.38192900      -1.65345200
H        1.07593200       0.10445800      -1.45711000
H        2.84189500       2.66219300      -2.71053600
H        3.63474800       1.49905600      -1.62544300
H        3.50913100       3.21964200      -1.17323200
H        1.48080000       1.97224700       1.83511300
H        2.31092800       3.56206800       1.90536400
H        2.94133100       2.24733400       0.89846700
23
Properties=species:S:1:pos:R:3 Coordinates=T from=T ORCA-job=T isoindene_irc_IRC_Full=T E=T -425.588643525812=T pbc="F F F"
C       -2.61896000       2.63016800       0.80074900
C       -2.68337300       1.29323200       0.40965900
C       -1.57043400       0.66071600      -0.15098000
C       -0.39206900       1.38643800      -0.30129800
C       -0.29285400       2.70438500       0.20148700
C       -1.41249600       3.34312600       0.71474400
H       -1.38219100       4.39351800       1.02000600
H       -3.51891300       3.12466900       1.17672900
H       -3.62039700       0.74159000       0.51534900
H       -1.63057600      -0.37530500      -0.49304300
C        1.14077200       3.13616600       0.02170200
C        1.66049700       2.14992200      -1.00095900
H        1.27451700       4.20000100      -0.23205500
C        0.84705800       1.07187400      -1.01455200
C        2.01615000       2.73900900       1.25559400
C        2.98040900       2.37837200      -1.65467400
H        1.06897500       0.10631500      -1.47175200
H        2.84184400       2.66064700      -2.71167800
H        3.63506700       1.49480600      -1.62968600
H        3.51139900       3.21484800      -1.17413300
H        1.48117600       1.97654300       1.83999100
H        2.29617200       3.57239900       1.90946100
H        2.94539300       2.26141100       0.91043800
23
Properties=species:S:1:pos:R:3 Coordinates=T from=T ORCA-job=T isoindene_irc_IRC_Full=T E=T -425.589350684833=T pbc="F F F"
C       -2.61638500       2.62987400       0.80319500
C       -2.68272200       1.29361600       0.40951300
C       -1.57100800       0.66002600      -0.15347100
C       -0.39227900       1.38425900      -0.30410800
C       -0.29165100       2.70109700       0.20159500
C       -1.40897100       3.34051800       0.71817600
H       -1.37548800       4.38956300       1.02593200
H       -3.51528000       3.12501200       1.17910500
H       -3.62141600       0.74274400       0.51480600
H       -1.63372800      -0.37542000      -0.49666500
C        1.14296700       3.13259600       0.02279600
C        1.66199000       2.14549500      -1.00066700
H        1.27431600       4.19643900      -0.23695700
C        0.84554200       1.07084400      -1.01908500
C        2.01284000       2.74511500       1.25927700
C        2.98159300       2.37474400      -1.65618400
H        1.06236800       0.10844100      -1.48584900
H        2.84155000       2.65892100      -2.71214600
H        3.63497500       1.49075900      -1.63384300
H        3.51383300       3.20978700      -1.17497900
H        1.48199500       1.98089700       1.84453300
H        2.28179400       3.58419400       1.91448200
H        2.95023300       2.27562900       0.92209100
23
Properties=species:S:1:pos:R:3 Coordinates=T from=T ORCA-job=T isoindene_irc_IRC_Full=T E=T -425.590020342343=T pbc="F F F"
C       -2.61394300       2.62849600       0.80535900
C       -2.68279200       1.29328700       0.40920900
C       -1.57288100       0.65944300      -0.15575500
C       -0.39287300       1.38286100      -0.30669300
C       -0.28917100       2.69821900       0.20159400
C       -1.40512800       3.33753400       0.72127000
H       -1.36886900       4.38622600       1.03214100
H       -3.51216200       3.12554200       1.18210200
H       -3.62128700       0.74455700       0.51411400
H       -1.63685400      -0.37548600      -0.50048600
C        1.14369400       3.12990200       0.02145800
C        1.66386700       2.14266300      -0.99944700
H        1.27410500       4.19179700      -0.24153000
C        0.84437600       1.06937200      -1.02382200
C        2.01209000       2.75177400       1.26525700
C        2.98202400       2.37095200      -1.65705100
H        1.05606900       0.11011700      -1.49953600
H        2.84111900       2.65728800      -2.71293800
H        3.63530600       1.48616400      -1.63798400
H        3.51644600       3.20471800      -1.17560600
H        1.48303300       1.98512500       1.84858800
H        2.26677900       3.59440600       1.91808100
H        2.95404300       2.29052600       0.93365700
23
Properties=species:S:1:pos:R:3 Coordinates=T from=T ORCA-job=T isoindene_irc_IRC_Full=T E=T -425.590659159264=T pbc="F F F"
C       -2.61132500       2.62851500       0.80798300
C       -2.68207300       1.29385200       0.40884700
C       -1.57336000       0.65906500      -0.15866000
C       -0.39303100       1.38086400      -0.30981800
C       -0.28856300       2.69503600       0.20148200
C       -1.40189600       3.33513500       0.72470400
H       -1.36250100       4.38207100       1.03819300
H       -3.50839900       3.12550200       1.18520800
H       -3.62261200       0.74547900       0.51354700
H       -1.64005600      -0.37542400      -0.50448300
C        1.14610200       3.12652200       0.02307000
C        1.66525200       2.13766000      -0.99936600
H        1.27405300       4.18849400      -0.24650400
C        0.84296800       1.06848800      -1.02806900
C        2.00860400       2.75852000       1.26804200
C        2.98342300       2.36724900      -1.65834800
H        1.05015400       0.11236200      -1.51233200
H        2.84058700       2.65546800      -2.71290900
H        3.63503700       1.48195700      -1.64197000
H        3.51915700       3.19937700      -1.17621900
H        1.48407200       1.98870300       1.85277700
H        2.25227900       3.60584300       1.92262600
H        2.95907100       2.30511000       0.94459700
23
Properties=species:S:1:pos:R:3 Coordinates=T from=T ORCA-job=T isoindene_irc_IRC_Full=T E=T -425.591242481485=T pbc="F F F"
C       -2.60926000       2.62667400       0.81006000
C       -2.68246900       1.29339900       0.40838500
C       -1.57558800       0.65866900      -0.16111200
C       -0.39398600       1.37983100      -0.31232500
C       -0.28574400       2.69266500       0.20129500
C       -1.39818000       3.33217700       0.72751500
H       -1.35638900       4.37912300       1.04441000
H       -3.50552200       3.12584300       1.18886500
H       -3.62207800       0.74743400       0.51277600
H       -1.64307900      -0.37518100      -0.50850700
C        1.14636300       3.12398900       0.02081400
C        1.66712400       2.13577800      -0.99757900
H        1.27392500       4.18394700      -0.25088800
C        0.84193700       1.06707600      -1.03238400
C        2.00826300       2.76412900       1.27406300
C        2.98378500       2.36344500      -1.65883600
H        1.04473000       0.11357400      -1.52449300
H        2.84005400       2.65389800      -2.71351600
H        3.63540300       1.47718100      -1.64584200
H        3.52188800       3.19426100      -1.17654600
H        1.48577400       1.99280000       1.85579600
H        2.23775300       3.61531900       1.92564900
H        2.96222900       2.32017500       0.95517800
23
Properties=species:S:1:pos:R:3 Coordinates=T from=T ORCA-job=T isoindene_irc_IRC_Full=T E=T -425.591801476121=T pbc="F F F"
C       -2.60666700       2.62721100       0.81283400
C       -2.68163300       1.29414700       0.40787700
C       -1.57582000       0.65865000      -0.16423300
C       -0.39391000       1.37792300      -0.31564400
C       -0.28583100       2.68974700       0.20109300
C       -1.39543800       3.33008700       0.73088200
H       -1.35060000       4.37487300       1.05026000
H       -3.50171200       3.12539000       1.19239200
H       -3.62381200       0.74801900       0.51220900
H       -1.64620500      -0.37500000      -0.51275200
C        1.14879800       3.12108300       0.02307000
C        1.66829700       2.13001200      -0.99801600
H        1.27398500       4.18108300      -0.25574600
C        0.84073000       1.06644800      -1.03616700
C        2.00470000       2.77126900       1.27588800
C        2.98533100       2.35978200      -1.65999400
H        1.03963000       0.11593500      -1.53547700
H        2.83951300       2.65209000      -2.71303400
H        3.63487500       1.47308300      -1.64949600
H        3.52473500       3.18891300      -1.17690300
H        1.48695900       1.99548800       1.85951500
H        2.22375500       3.62588100       1.92964300
H        2.96728400       2.33446000       0.96493200
23
Properties=species:S:1:pos:R:3 Coordinates=T from=T ORCA-job=T isoindene_irc_IRC_Full=T E=T -425.591972291761=T pbc="F F F"
C       -2.60612400       2.62644500       0.81340500
C       -2.68186000       1.29399100       0.40772000
C       -1.57658900       0.65850900      -0.16501800
C       -0.39434300       1.37780200      -0.31628800
C       -0.28488500       2.68909700       0.20096800
C       -1.39434500       3.32921100       0.73165900
H       -1.34889500       4.37410900       1.05212500
H       -3.50095900       3.12547500       1.19366200
H       -3.62350500       0.74866800       0.51194700
H       -1.64708300      -0.37479700      -0.51400500
C        1.14885200       3.12029400       0.02214700
C        1.66890600       2.12989400      -0.99726300
H        1.27395500       4.17974700      -0.25701400
C        0.84043600       1.06591400      -1.03740200
C        2.00465700       2.77271000       1.27760200
C        2.98537500       2.35865800      -1.66001700
H        1.03821200       0.11617100      -1.53872300
H        2.83936700       2.65164900      -2.71320400
H        3.63501600       1.47157400      -1.65059400
H        3.52556200       3.18734900      -1.17692300
H        1.48763500       1.99666500       1.86017500
H        2.21954100       3.62853000       1.93044100
H        2.96805700       2.33901200       0.96783700
23
Properties=species:S:1:pos:R:3 Coordinates=T from=T ORCA-job=T isoindene_irc_IRC_Full=T E=T -425.592253664281=T pbc="F F F"
C       -2.60496100       2.62576400       0.81459700
C       -2.68195800       1.29417500       0.40750000
C       -1.57731600       0.65826400      -0.16662500
C       -0.39473700       1.37742200      -0.31764200
C       -0.28400400       2.68773700       0.20074700
C       -1.39274000       3.32797000       0.73324000
H       -1.34594700       4.37233100       1.05529400
H       -3.49934500       3.12540700       1.19581400
H       -3.62363700       0.74940300       0.51154400
H       -1.64866900      -0.37448300      -0.51626300
C        1.14945700       3.11889500       0.02187300
C        1.67026300       2.12897400      -0.99668500
H        1.27395200       4.17779500      -0.25939100
C        0.83954100       1.06452100      -1.03956900
C        2.00376100       2.77585800       1.27955400
C        2.98565600       2.35660400      -1.66025800
H        1.03572600       0.11711400      -1.54414100
H        2.83911200       2.65080300      -2.71321300
H        3.63500900       1.46912900      -1.65248100
H        3.52707300       3.18458500      -1.17695300
H        1.48862500       1.99833100       1.86160600
H        2.21217900       3.63344600       1.93206600
H        2.96999100       2.34681800       0.97280100
23
Properties=species:S:1:pos:R:3 Coordinates=T from=T ORCA-job=T isoindene_irc_IRC_Full=T E=T -425.592551491573=T pbc="F F F"
C       -2.60367700       2.62545300       0.81606600
C       -2.68181000       1.29433300       0.40715200
C       -1.57799900       0.65827400      -0.16836400
C       -0.39499900       1.37669100      -0.31934300
C       -0.28342500       2.68634000       0.20058300
C       -1.39102300       3.32661400       0.73499600
H       -1.34275800       4.37024900       1.05875100
H       -3.49741400       3.12519300       1.19817200
H       -3.62407800       0.75004900       0.51112500
H       -1.65042700      -0.37422300      -0.51883200
C        1.15026000       3.11743100       0.02200800
C        1.67108000       2.12669900      -0.99636800
H        1.27396500       4.17584200      -0.26204300
C        0.83898000       1.06397400      -1.04172400
C        2.00253800       2.77950000       1.28137700
C        2.98624300       2.35443700      -1.66062700
H        1.03307100       0.11811300      -1.54997400
H        2.83884600       2.64984300      -2.71307000
H        3.63486100       1.46651800      -1.65451900
H        3.52876600       3.18148300      -1.17699600
H        1.48968500       1.99998900       1.86320300
H        2.20410400       3.63889900       1.93389800
H        2.97230100       2.35536300       0.97813400
23
Properties=species:S:1:pos:R:3 Coordinates=T from=T ORCA-job=T isoindene_irc_IRC_Full=T E=T -425.592842538637=T pbc="F F F"
C       -2.60244600       2.62479300       0.81744900
C       -2.68188700       1.29441000       0.40681900
C       -1.57886300       0.65821200      -0.17012000
C       -0.39539300       1.37613100      -0.32094600
C       -0.28250100       2.68498800       0.20036000
C       -1.38927500       3.32520000       0.73670200
H       -1.33959900       4.36833400       1.06227000
H       -3.49562300       3.12503200       1.20067900
H       -3.62423800       0.75085600       0.51066100
H       -1.65217600      -0.37385100      -0.52143900
C        1.15083700       3.11597900       0.02156300
C        1.67205300       2.12510500      -0.99572000
H        1.27396700       4.17375400      -0.26464700
C        0.83828500       1.06325300      -1.04382400
C        2.00165100       2.78288500       1.28353400
C        2.98675800       2.35225000      -1.66088800
H        1.03051800       0.11889900      -1.55571100
H        2.83860100       2.64891200      -2.71299200
H        3.63478100       1.46379400      -1.65654600
H        3.53045600       3.17833500      -1.17698300
H        1.49090700       2.00173100       1.86458800
H        2.19600600       3.64417900       1.93560000
H        2.97435400       2.36408000       0.98338500
23
Properties=species:S:1:pos:R:3 Coordinates=T from=T ORCA-job=T isoindene_irc_IRC_Full=T E=T -425.593129429923=T pbc="F F F"
C       -2.60117400       2.62447400       0.81897100
C       -2.68173000       1.29459200       0.40643100
C       -1.57957400       0.65825700      -0.17193800
C       -0.39572000       1.37546600      -0.32263800
C       -0.28198400       2.68362800       0.20016200
C       -1.38759500       3.32387400       0.73847900
H       -1.33647700       4.36622500       1.06576900
H       -3.49368100       3.12473700       1.20321300
H       -3.62470900       0.75148400       0.51021100
H       -1.65395200      -0.37349900      -0.52414000
C        1.15170100       3.11458200       0.02176100
C        1.67290300       2.12289000      -0.99542200
H        1.27398300       4.17184100      -0.26732500
C        0.83774100       1.06263100      -1.04593100
C        2.00035500       2.78661000       1.28514400
C        2.98732900       2.35003200      -1.66119800
H        1.02800000       0.11985900      -1.56123900
H        2.83837600       2.64795600      -2.71278800
H        3.63459900       1.46108900      -1.65854900
H        3.53222600       3.17515700      -1.17693300
H        1.49209100       2.00323900       1.86605200
H        2.18787800       3.64953200       1.93737000
H        2.97668300       2.37279900       0.98852100
23
Properties=species:S:1:pos:R:3 Coordinates=T from=T ORCA-job=T isoindene_irc_IRC_Full=T E=T -425.593410662978=T pbc="F F F"
C       -2.59995900       2.62380500       0.82041000
C       -2.68185600       1.29467200       0.40607500
C       -1.58046100       0.65828100      -0.17375600
C       -0.39607400       1.37492700      -0.32429200
C       -0.28107100       2.68235000       0.19993600
C       -1.38587100       3.32244900       0.74019400
H       -1.33336900       4.36430800       1.06934700
H       -3.49187100       3.12449500       1.20589000
H       -3.62487700       0.75229400       0.50971400
H       -1.65572600      -0.37307700      -0.52689400
C        1.15217700       3.11316500       0.02122400
C        1.67380400       2.12122500      -0.99476100
H        1.27398900       4.16979700      -0.26995400
C        0.83707000       1.06201400      -1.04792800
C        1.99954800       2.78994800       1.28730300
C        2.98791700       2.34781400      -1.66142500
H        1.02557400       0.12058100      -1.56671800
H        2.83817800       2.64702600      -2.71263600
H        3.63445600       1.45829500      -1.66054700
H        3.53397500       3.17189400      -1.17685000
H        1.49348300       2.00492900       1.86724000
H        2.17969700       3.65470000       1.93899000
H        2.97865500       2.38175400       0.99361600
23
Properties=species:S:1:pos:R:3 Coordinates=T from=T ORCA-job=T isoindene_irc_IRC_Full=T E=T -425.593687559541=T pbc="F F F"
C       -2.59868400       2.62342900       0.82196400
C       -2.68172600       1.29487900       0.40566500
C       -1.58120100       0.65832900      -0.17565700
C       -0.39646100       1.37434600      -0.32595900
C       -0.28056000       2.68100500       0.19970000
C       -1.38424400       3.32114900       0.74199600
H       -1.33030800       4.36219200       1.07289100
H       -3.48994100       3.12413700       1.20859700
H       -3.62534700       0.75292800       0.50922900
H       -1.65751800      -0.37260900      -0.52971300
C        1.15306200       3.11182100       0.02140300
C        1.67470600       2.11912700      -0.99444600
H        1.27400000       4.16791100      -0.27264600
C        0.83652600       1.06131700      -1.04998900
C        1.99822200       2.79372200       1.28875300
C        2.98845700       2.34554600      -1.66166800
H        1.02318500       0.12149600      -1.57195000
H        2.83800800       2.64608000      -2.71238000
H        3.63424100       1.45549600      -1.66251600
H        3.53581400       3.16863200      -1.17670800
H        1.49480700       2.00631000       1.86855600
H        2.17151700       3.65993100       1.94069300
H        2.98096900       2.39065700       0.99856100
23
Properties=species:S:1:pos:R:3 Coordinates=T from=T ORCA-job=T isoindene_irc_IRC_Full=T E=T -425.593959677279=T pbc="F F F"
C       -2.59750000       2.62278600       0.82347300
C       -2.68183700       1.29497100       0.40527200
C       -1.58210000       0.65845600      -0.17752500
C       -0.39680700       1.37382300      -0.32764500
C       -0.27971900       2.67979400       0.19947700
C       -1.38253100       3.31972700       0.74372400
H       -1.32725800       4.36024800       1.07651500
H       -3.48809400       3.12380100       1.21142300
H       -3.62556100       0.75371900       0.50870200
H       -1.65931700      -0.37214000      -0.53261000
C        1.15350800       3.11045700       0.02088100
C        1.67555000       2.11737700      -0.99381400
H        1.27400400       4.16592000      -0.27530300
C        0.83589100       1.06075100      -1.05191300
C        1.99741800       2.79707700       1.29080800
C        2.98910000       2.34329300      -1.66186400
H        1.02087800       0.12218700      -1.57715100
H        2.83786700       2.64515200      -2.71215100
H        3.63403300       1.45263300      -1.66448100
H        3.53762800       3.16526600      -1.17654400
H        1.49635400       2.00790900       1.86957500
H        2.16326700       3.66498800       1.94224800
H        2.98290800       2.39981900       1.00348200
23
Properties=species:S:1:pos:R:3 Coordinates=T from=T ORCA-job=T isoindene_irc_IRC_Full=T E=T -425.594227578197=T pbc="F F F"
C       -2.59622000       2.62237100       0.82506600
C       -2.68174700       1.29517100       0.40483700
C       -1.58288100       0.65852600      -0.17949100
C       -0.39722000       1.37329700      -0.32931000
C       -0.27920700       2.67849200       0.19922500
C       -1.38094100       3.31842600       0.74554300
H       -1.32425100       4.35813500       1.08010800
H       -3.48617500       3.12338100       1.21429300
H       -3.62601600       0.75436800       0.50817900
H       -1.66112600      -0.37156900      -0.53554800
C        1.15437700       3.10915800       0.02099700
C        1.67644000       2.11533400      -0.99347300
H        1.27400600       4.16405800      -0.27800800
C        0.83536400       1.06009000      -1.05389300
C        1.99610300       2.80086600       1.29215600
C        2.98963800       2.34098800      -1.66204700
H        1.01861200       0.12302300      -1.58212800
H        2.83775900       2.64421800      -2.71184500
H        3.63377900       1.44974400      -1.66641800
H        3.53953100       3.16191000      -1.17631500
H        1.49783200       2.00919100       1.87072700
H        2.15502600       3.67009100       1.94388500
H        2.98518000       2.40892500       1.00824900
23
Properties=species:S:1:pos:R:3 Coordinates=T from=T ORCA-job=T isoindene_irc_IRC_Full=T E=T -425.594490934661=T pbc="F F F"
C       -2.59505800       2.62172200       0.82662900
C       -2.68185900       1.29529600       0.40442300
C       -1.58378100       0.65872200      -0.18141500
C       -0.39757900       1.37281900      -0.33099600
C       -0.27841000       2.67732200       0.19899500
C       -1.37925800       3.31702000       0.74729300
H       -1.32126000       4.35617200       1.08377100
H       -3.48430900       3.12296300       1.21726000
H       -3.62626700       0.75514500       0.50761900
H       -1.66294400      -0.37103900      -0.53857300
C        1.15479800       3.10785300       0.02048000
C        1.67726800       2.11357500      -0.99286200
H        1.27400000       4.16211900      -0.28068100
C        0.83475000       1.05951400      -1.05575900
C        1.99530100       2.80423700       1.29409700
C        2.99031500       2.33869900      -1.66220400
H        1.01642100       0.12369000      -1.58704300
H        2.83768300       2.64329900      -2.71154400
H        3.63350900       1.44681300      -1.66834500
H        3.54140500       3.15844700      -1.17606500
H        1.49953400       2.01069200       1.87158000
H        2.14672500       3.67501600       1.94537400
H        2.98707900       2.41827600       1.01298300
23
Properties=species:S:1:pos:R:3 Coordinates=T from=T ORCA-job=T isoindene_irc_IRC_Full=T E=T -425.594750444887=T pbc="F F F"
C       -2.59378500       2.62127800       0.82826500
C       -2.68180200       1.29548400       0.40396300
C       -1.58460400       0.65882900      -0.18343100
C       -0.39799800       1.37233400      -0.33266600
C       -0.27790700       2.67607300       0.19873900
C       -1.37769700       3.31572300       0.74913000
H       -1.31830800       4.35405800       1.08740900
H       -3.48239500       3.12247800       1.22027800
H       -3.62671400       0.75580700       0.50705900
H       -1.66476900      -0.37037900      -0.54162800
C        1.15564100       3.10659600       0.02054300
C        1.67814900       2.11158400      -0.99250300
H        1.27398800       4.16029400      -0.28339700
C        0.83422600       1.05888400      -1.05765600
C        1.99400200       2.80802700       1.29534600
C        2.99085700       2.33635700      -1.66233000
H        1.01427200       0.12445200      -1.59176800
H        2.83764300       2.64238100      -2.71118600
H        3.63320800       1.44383900      -1.67024600
H        3.54337000       3.15499600      -1.17574600
H        1.50117300       2.01188000       1.87256400
H        2.13842900       3.67998700       1.94695000
H        2.98930200       2.42758100       1.01756700
23
Properties=species:S:1:pos:R:3 Coordinates=T from=T ORCA-job=T isoindene_irc_IRC_Full=T E=T -425.595005561849=T pbc="F F F"
C       -2.59263900       2.62061900       0.82987700
C       -2.68191900       1.29563600       0.40353100
C       -1.58550500       0.65907900      -0.18540700
C       -0.39837400       1.37190600      -0.33434200
C       -0.27715100       2.67494200       0.19850400
C       -1.37604500       3.31432400       0.75089800
H       -1.31537800       4.35208500       1.09110800
H       -3.48051900       3.12198300       1.22337700
H       -3.62699400       0.75657400       0.50646600
H       -1.66660300      -0.36977900      -0.54477000
C        1.15603900       3.10535300       0.02002100
C        1.67895500       2.10982800      -0.99190800
H        1.27396800       4.15840400      -0.28608200
C        0.83363700       1.05830500      -1.05946200
C        1.99320600       2.81141900       1.29717500
C        2.99155700       2.33403900      -1.66244500
H        1.01219400       0.12508600      -1.59640700
H        2.83763900       2.64147600      -2.71081800
H        3.63287900       1.44083700      -1.67213300
H        3.54530300       3.15143800      -1.17540700
H        1.50303200       2.01328100       1.87325100
H        2.13008600       3.68476500       1.94837500
H        2.99115800       2.43711100       1.02210800
23
Properties=species:S:1:pos:R:3 Coordinates=T from=T ORCA-job=T isoindene_irc_IRC_Full=T E=T -425.595257200372=T pbc="F F F"
C       -2.59137800       2.62014500       0.83155400
C       -2.68188800       1.29582100       0.40305000
C       -1.58636000       0.65923500      -0.18746500
C       -0.39879800       1.37145700      -0.33601200
C       -0.27665400       2.67374300       0.19824600
C       -1.37451400       3.31304400       0.75275800
H       -1.31248100       4.34996400       1.09478400
H       -3.47860800       3.12143400       1.22652900
H       -3.62743900       0.75724600       0.50586900
H       -1.66844100      -0.36904100      -0.54793600
C        1.15685200       3.10414200       0.02004000
C        1.67982100       2.10788700      -0.99153700
H        1.27393800       4.15662100      -0.28880500
C        0.83311400       1.05770300      -1.06127700
C        1.99192400       2.81519500       1.29831800
C        2.99211400       2.33166100      -1.66252000
H        1.01015700       0.12578100      -1.60088200
H        2.83767300       2.64057500      -2.71040500
H        3.63252300       1.43778900      -1.67399700
H        3.54732700       3.14789300      -1.17499600
H        1.50483700       2.01438100       1.87406500
H        2.12174700       3.68960000       1.94989600
H        2.99332600       2.44660700       1.02650600
23
Properties=species:S:1:pos:R:3 Coordinates=T from=T ORCA-job=T isoindene_irc_IRC_Full=T E=T -425.595504584121=T pbc="F F F"
C       -2.59024400       2.61947800       0.83321200
C       -2.68201300       1.29599400       0.40260100
C       -1.58726900       0.65953000      -0.18948600
C       -0.39919000       1.37108200      -0.33767200
C       -0.27593500       2.67264900       0.19800900
C       -1.37289600       3.31165000       0.75454400
H       -1.30961100       4.34798500       1.09851600
H       -3.47672800       3.12086700       1.22975000
H       -3.62774300       0.75800600       0.50524200
H       -1.67028900      -0.36836700      -0.55118400
C        1.15722600       3.10296000       0.01951000
C        1.68060800       2.10614300      -0.99095800
H        1.27389800       4.15478400      -0.29149600
C        0.83254900       1.05713100      -1.06302100
C        1.99113700       2.81861300       1.30003900
C        2.99282700       2.32931800      -1.66258800
H        1.00818800       0.12637800      -1.60525500
H        2.83774500       2.63968900      -2.70997300
H        3.63213600       1.43471500      -1.67584100
H        3.54931800       3.14424300      -1.17456300
H        1.50685500       2.01568200       1.87458900
H        2.11337000       3.69421800       1.95125500
H        2.99513500       2.45630700       1.03084700
23
Properties=species:S:1:pos:R:3 Coordinates=T from=T ORCA-job=T isoindene_irc_IRC_Full=T E=T -425.595748819863=T pbc="F F F"
C       -2.58900000       2.61897500       0.83493000
C       -2.68200800       1.29618300       0.40210500
C       -1.58814300       0.65973600      -0.19158200
C       -0.39962200       1.37066700      -0.33933800
C       -0.27545700       2.67150500       0.19775800
C       -1.37138700       3.31037700       0.75642100
H       -1.30677100       4.34586200       1.10222700
H       -3.47482100       3.12025300       1.23302400
H       -3.62819100       0.75868600       0.50461000
H       -1.67213900      -0.36755700      -0.55445400
C        1.15801200       3.10180100       0.01948800
C        1.68145000       2.10425200      -0.99057400
H        1.27384400       4.15304500      -0.29422300
C        0.83203200       1.05654500      -1.06476200
C        1.98987300       2.82236400       1.30107100
C        2.99341000       2.32690600      -1.66261500
H        1.00625800       0.12701500      -1.60948500
H        2.83785600       2.63881100      -2.70950300
H        3.63172000       1.43159900      -1.67766300
H        3.55139700       3.14060300      -1.17405700
H        1.50883100       2.01669800       1.87523500
H        2.10499500       3.69891500       1.95272700
H        2.99724200       2.46598700       1.03505600
23
Properties=species:S:1:pos:R:3 Coordinates=T from=T ORCA-job=T isoindene_irc_IRC_Full=T E=T -425.595988897971=T pbc="F F F"
C       -2.58787600       2.61830400       0.83663000
C       -2.68214000       1.29636300       0.40163800
C       -1.58906600       0.66007500      -0.19363700
C       -0.40002600       1.37034100      -0.34098000
C       -0.27477000       2.67044900       0.19752300
C       -1.36980400       3.30898900       0.75822500
H       -1.30396100       4.34387900       1.10598900
H       -3.47294100       3.11962000       1.23635600
H       -3.62851400       0.75944300       0.50395000
H       -1.67399600      -0.36681000      -0.55779600
C        1.15835900       3.10067500       0.01894500
C        1.68222500       2.10253000      -0.99001200
H        1.27378100       4.15126300      -0.29691500
C        0.83148500       1.05598500      -1.06644000
C        1.98909800       2.82580600       1.30269200
C        2.99412400       2.32454200      -1.66263200
H        1.00439500       0.12756800      -1.61360400
H        2.83801000       2.63794800      -2.70900900
H        3.63127600       1.42845500      -1.67946300
H        3.55344500       3.13686500      -1.17352800
H        1.51101100       2.01790400       1.87559600
H        2.09659400       3.70336300       1.95401900
H        2.99899900       2.47584700       1.03919500
23
Properties=species:S:1:pos:R:3 Coordinates=T from=T ORCA-job=T isoindene_irc_IRC_Full=T E=T -425.596226139898=T pbc="F F F"
C       -2.58665600       2.61775400       0.83838000
C       -2.68216100       1.29658400       0.40113900
C       -1.58994900       0.66032200      -0.19577000
C       -0.40046600       1.36996700      -0.34263300
C       -0.27429100       2.66934200       0.19726800
C       -1.36832900       3.30773800       0.76012800
H       -1.30117700       4.34175200       1.10973000
H       -3.47103800       3.11894300       1.23974000
H       -3.62896900       0.76012800       0.50328300
H       -1.67585600      -0.36593000      -0.56115900
C        1.15910900       3.09957600       0.01888600
C        1.68302300       2.10067700      -0.98961400
H        1.27369900       4.14956900      -0.29964200
C        0.83098000       1.05542800      -1.06810700
C        1.98786000       2.82953100       1.30361500
C        2.99474300       2.32210500      -1.66261500
H        1.00256700       0.12814900      -1.61759500
H        2.83820200       2.63709500      -2.70847900
H        3.63079400       1.42527700      -1.68124200
H        3.55557500       3.13312900      -1.17292700
H        1.51316000       2.01883800       1.87607600
H        2.08819300       3.70791400       1.95544200
H        3.00103800       2.48570100       1.04321200
23
Properties=species:S:1:pos:R:3 Coordinates=T from=T ORCA-job=T isoindene_irc_IRC_Full=T E=T -425.596459312501=T pbc="F F F"
C       -2.58553600       2.61705400       0.84011000
C       -2.68230800       1.29678800       0.40066500
C       -1.59088400       0.66068900      -0.19785800
C       -0.40087700       1.36970000      -0.34425000
C       -0.27361500       2.66830500       0.19702400
C       -1.36679400       3.30638000       0.76196200
H       -1.29842600       4.33975700       1.11351500
H       -3.46916900       3.11825100       1.24317500
H       -3.62930800       0.76088300       0.50259000
H       -1.67772100      -0.36510900      -0.56458600
C        1.15941900       3.09850700       0.01832000
C        1.68376700       2.09896700      -0.98906800
H        1.27360700       4.14784400      -0.30233200
C        0.83046100       1.05490900      -1.06971300
C        1.98710800       2.83298400       1.30514900
C        2.99546100       2.31972300      -1.66258100
H        1.00080400       0.12865100      -1.62147600
H        2.83844000       2.63626000      -2.70792500
H        3.63029100       1.42206500      -1.68299600
H        3.55767800       3.12930400      -1.17229900
H        1.51550800       2.01995900       1.87627500
H        2.07977400       3.71218700       1.95666900
H        3.00273300       2.49571400       1.04714900
23
Properties=species:S:1:pos:R:3 Coordinates=T from=T ORCA-job=T isoindene_irc_IRC_Full=T E=T -425.596689670919=T pbc="F F F"
C       -2.58435400       2.61651200       0.84190700
C       -2.68235100       1.29697800       0.40014200
C       -1.59178800       0.66101400      -0.19999800
C       -0.40131900       1.36935000      -0.34589400
C       -0.27317300       2.66729000       0.19680600
C       -1.36531500       3.30508000       0.76384800
H       -1.29570500       4.33766300       1.11728700
H       -3.46726700       3.11750700       1.24664800
H       -3.62975900       0.76158100       0.50189100
H       -1.67958700      -0.36418000      -0.56803300
C        1.16010300       3.09746600       0.01818700
C        1.68455900       2.09719900      -0.98865600
H        1.27349300       4.14619500      -0.30504800
C        0.82994100       1.05433800      -1.07131000
C        1.98593500       2.83667300       1.30601800
C        2.99610600       2.31727300      -1.66251500
H        0.99907900       0.12918600      -1.62522200
H        2.83871900       2.63543900      -2.70733400
H        3.62974700       1.41882800      -1.68472600
H        3.55985100       3.12547400      -1.17159900
H        1.51783900       2.02082500       1.87657700
H        2.07136600       3.71655200       1.95802000
H        3.00467700       2.50572400       1.05096000
23
Properties=species:S:1:pos:R:3 Coordinates=T from=T ORCA-job=T isoindene_irc_IRC_Full=T E=T -425.596916750912=T pbc="F F F"
C       -2.58323900       2.61582500       0.84368400
C       -2.68249600       1.29717400       0.39964500
C       -1.59273800       0.66142500      -0.20211200
C       -0.40174600       1.36911300      -0.34749600
C       -0.27255500       2.66629800       0.19658000
C       -1.36380400       3.30372500       0.76569900
H       -1.29300700       4.33565400       1.12110100
H       -3.46539900       3.11675200       1.25017800
H       -3.63012100       0.76233400       0.50116800
H       -1.68146100      -0.36328600      -0.57154000
C        1.16041700       3.09644300       0.01763500
C        1.68529800       2.09552000      -0.98813100
H        1.27336900       4.14452900      -0.30774200
C        0.82943600       1.05382300      -1.07286100
C        1.98516600       2.84015100       1.30741000
C        2.99681700       2.31485900      -1.66242700
H        0.99740600       0.12965300      -1.62888000
H        2.83904200       2.63463400      -2.70671900
H        3.62918200       1.41554800      -1.68643700
H        3.56201500       3.12156200      -1.17086500
H        1.52035400       2.02185400       1.87663500
H        2.06292300       3.72068200       1.95920400
H        3.00633400       2.51589600       1.05470400
23
Properties=species:S:1:pos:R:3 Coordinates=T from=T ORCA-job=T isoindene_irc_IRC_Full=T E=T -425.597140745586=T pbc="F F F"
C       -2.58207000       2.61524100       0.84550300
C       -2.68255600       1.29740200       0.39912400
C       -1.59364600       0.66177100      -0.20428100
C       -0.40219800       1.36880800      -0.34911500
C       -0.27211300       2.66529800       0.19635200
C       -1.36237900       3.30246800       0.76762100
H       -1.29034500       4.33354700       1.12489000
H       -3.46350900       3.11595300       1.25373800
H       -3.63058700       0.76303000       0.50043900
H       -1.68333000      -0.36228500      -0.57505600
C        1.16108700       3.09546600       0.01749800
C        1.68604700       2.09377500      -0.98772600
H        1.27321900       4.14293200      -0.31045000
C        0.82893600       1.05329400      -1.07438700
C        1.98399700       2.84384100       1.30814400
C        2.99748000       2.31239300      -1.66231300
H        0.99577500       0.13013500      -1.63240300
H        2.83940900       2.63384600      -2.70606400
H        3.62857200       1.41225400      -1.68812000
H        3.56423700       3.11764400      -1.17006400
H        1.52285400       2.02263000       1.87679200
H        2.05450900       3.72488600       1.96050500
H        3.00822200       2.52604700       1.05831200
23
Properties=species:S:1:pos:R:3 Coordinates=T from=T ORCA-job=T isoindene_irc_IRC_Full=T E=T -425.597361470510=T pbc="F F F"
C       -2.58096800       2.61454700       0.84731100
C       -2.68271600       1.29759900       0.39861700
C       -1.59460600       0.66222400      -0.20640800
C       -0.40263300       1.36860200      -0.35069500
C       -0.27152500       2.66434700       0.19613700
C       -1.36090300       3.30112200       0.76948700
H       -1.28770800       4.33153700       1.12871900
H       -3.46165000       3.11514200       1.25734500
H       -3.63096100       0.76378400       0.49968600
H       -1.68520600      -0.36132800      -0.57862400
C        1.16137000       3.09449800       0.01692300
C        1.68675200       2.09211900      -0.98721400
H        1.27306000       4.14133300      -0.31313700
C        0.82845300       1.05281300      -1.07586900
C        1.98324400       2.84731200       1.30942700
C        2.99819900       2.30996400      -1.66217100
H        0.99419300       0.13055700      -1.63583800
H        2.83982000       2.63307900      -2.70539000
H        3.62794400       1.40891800      -1.68978200
H        3.56645300       3.11365400      -1.16922500
H        1.52553600       2.02357600       1.87670300
H        2.04607100       3.72885400       1.96163400
H        3.00982000       2.53634500       1.06184600
23
Properties=species:S:1:pos:R:3 Coordinates=T from=T ORCA-job=T isoindene_irc_IRC_Full=T E=T -425.597579380708=T pbc="F F F"
C       -2.57981700       2.61394500       0.84915900
C       -2.68278700       1.29784200       0.39809200
C       -1.59551800       0.66260100      -0.20859500
C       -0.40309200       1.36834100      -0.35229100
C       -0.27110300       2.66338700       0.19591600
C       -1.35950700       3.29987200       0.77142300
H       -1.28510400       4.32943200       1.13252600
H       -3.45977500       3.11429000       1.26098000
H       -3.63144400       0.76447900       0.49893000
H       -1.68707800      -0.36026800      -0.58219900
C        1.16201600       3.09357700       0.01677700
C        1.68748800       2.09044700      -0.98681000
H        1.27287100       4.13978100      -0.31583500
C        0.82794300       1.05227900      -1.07733300
C        1.98210100       2.85099100       1.31006000
C        2.99887800       2.30748400      -1.66201100
H        0.99265000       0.13099500      -1.63915000
H        2.84027600       2.63232800      -2.70467000
H        3.62727000       1.40557200      -1.69141700
H        3.56871700       3.10964700      -1.16832300
H        1.52821500       2.02429000       1.87670700
H        2.03765600       3.73288100       1.96287100
H        3.01162400       2.54663600       1.06526100
23
Properties=species:S:1:pos:R:3 Coordinates=T from=T ORCA-job=T isoindene_irc_IRC_Full=T E=T -425.597794156167=T pbc="F F F"
C       -2.57873300       2.61323200       0.85099100
C       -2.68296100       1.29804500       0.39757800
C       -1.59649300       0.66309100      -0.21073000
C       -0.40353000       1.36817700      -0.35384900
C       -0.27053600       2.66247500       0.19571500
C       -1.35806000       3.29853800       0.77330200
H       -1.28252300       4.32742700       1.13637100
H       -3.45793100       3.11342500       1.26465400
H       -3.63182500       0.76523900       0.49815200
H       -1.68895500      -0.35925800      -0.58582200
C        1.16225700       3.09265500       0.01616800
C        1.68816100       2.08882400      -0.98630700
H        1.27267100       4.13823000      -0.31850800
C        0.82748100       1.05183400      -1.07875500
C        1.98138100       2.85445000       1.31126200
C        2.99960200       2.30504300      -1.66181400
H        0.99115300       0.13137500      -1.64237800
H        2.84077700       2.63160100      -2.70393500
H        3.62657700       1.40218600      -1.69303100
H        3.57097700       3.10557300      -1.16738200
H        1.53107500       2.02517600       1.87647000
H        2.02922700       3.73667300       1.96393900
H        3.01314000       2.55706100       1.06859800
23
Properties=species:S:1:pos:R:3 Coordinates=T from=T ORCA-job=T isoindene_irc_IRC_Full=T E=T -425.598006125249=T pbc="F F F"
C       -2.57760300       2.61262100       0.85286500
C       -2.68304800       1.29829800       0.39704900
C       -1.59740800       0.66350400      -0.21292700
C       -0.40399800       1.36794400      -0.35542300
C       -0.27014000       2.66154800       0.19550500
C       -1.35669800       3.29729900       0.77525200
H       -1.27997700       4.32532200       1.14018900
H       -3.45606400       3.11252000       1.26834800
H       -3.63231800       0.76593600       0.49737100
H       -1.69082700      -0.35814000      -0.58944200
C        1.16287500       3.09179500       0.01600700
C        1.68886700       2.08719100      -0.98591000
H        1.27244200       4.13673700      -0.32119500
C        0.82697200       1.05131600      -1.08015800
C        1.98025300       2.85811800       1.31177800
C        3.00029600       2.30255500      -1.66160700
H        0.98969400       0.13177400      -1.64548600
H        2.84132200       2.63089100      -2.70315400
H        3.62583900       1.39879100      -1.69461700
H        3.57328700       3.10148900      -1.16637400
H        1.53392200       2.02581100       1.87634500
H        2.02082400       3.74054100       1.96512400
H        3.01488300       2.56746700       1.07181100
23
Properties=species:S:1:pos:R:3 Coordinates=T from=T ORCA-job=T isoindene_irc_IRC_Full=T E=T -425.598215042477=T pbc="F F F"
C       -2.57654000       2.61189200       0.85471700
C       -2.68323900       1.29850200       0.39653000
C       -1.59839600       0.66403300      -0.21506300
C       -0.40444200       1.36781800      -0.35695400
C       -0.26958700       2.66067600       0.19531600
C       -1.35527800       3.29596900       0.77713900
H       -1.27745400       4.32332200       1.14404500
H       -3.45423900       3.11160800       1.27207900
H       -3.63270600       0.76669900       0.49656900
H       -1.69270300      -0.35708200      -0.59310800
C        1.16306600       3.09092000       0.01535300
C        1.68950300       2.08560500      -0.98541300
H        1.27220000       4.13523900      -0.32385300
C        0.82653200       1.05091300      -1.08151600
C        1.97958500       2.86155200       1.31292700
C        3.00103000       2.30010800      -1.66135700
H        0.98827800       0.13210700      -1.64852300
H        2.84191300       2.63020800      -2.70235900
H        3.62508400       1.39535800      -1.69618300
H        3.57558600       3.09733500      -1.16533200
H        1.53696300       2.02665600       1.87595900
H        2.01241200       3.74415000       1.96611800
H        3.01630000       2.57800800       1.07495200
23
Properties=species:S:1:pos:R:3 Coordinates=T from=T ORCA-job=T isoindene_irc_IRC_Full=T E=T -425.598420946729=T pbc="F F F"
C       -2.57542600       2.61127800       0.85661100
C       -2.68332800       1.29877000       0.39599800
C       -1.59930800       0.66446700      -0.21726600
C       -0.40491700       1.36760500      -0.35850600
C       -0.26923100       2.65978300       0.19511800
C       -1.35395900       3.29474900       0.77910200
H       -1.27496900       4.32121400       1.14786100
H       -3.45238800       3.11065400       1.27581500
H       -3.63322200       0.76738900       0.49576900
H       -1.69456800      -0.35590600      -0.59675600
C        1.16369700       3.09012100       0.01522700
C        1.69018500       2.08401800      -0.98503600
H        1.27192700       4.13380300      -0.32652200
C        0.82601900       1.05040200      -1.08286000
C        1.97843300       2.86522500       1.31326100
C        3.00173200       2.29761300      -1.66110300
H        0.98689900       0.13247300      -1.65143200
H        2.84254800       2.62954400      -2.70151400
H        3.62428100       1.39192800      -1.69771900
H        3.57793500       3.09318500      -1.16421900
H        1.53996500       2.02720200       1.87572700
H        2.00404300       3.74786400       1.96725900
H        3.01799700       2.58849600       1.07796200
23
Properties=species:S:1:pos:R:3 Coordinates=T from=T ORCA-job=T isoindene_irc_IRC_Full=T E=T -425.598623789460=T pbc="F F F"
C       -2.57438700       2.61052500       0.85847300
C       -2.68354400       1.29896700       0.39547800
C       -1.60031300       0.66504200      -0.21938800
C       -0.40536600       1.36752700      -0.36000300
C       -0.26867700       2.65895200       0.19494400
C       -1.35256100       3.29342000       0.78098500
H       -1.27250500       4.31923100       1.15172000
H       -3.45058900       3.10970200       1.27958700
H       -3.63360300       0.76816200       0.49494700
H       -1.69644000      -0.35481700      -0.60045100
C        1.16378600       3.08928600       0.01447600
C        1.69077200       2.08247000      -0.98453500
H        1.27164300       4.13235800      -0.32915700
C        0.82560900       1.05005500      -1.08415400
C        1.97786700       2.86860100       1.31443400
C        3.00247700       2.29517300      -1.66079900
H        0.98556000       0.13275500      -1.65428700
H        2.84322800       2.62890900      -2.70066400
H        3.62346900       1.38845700      -1.69923500
H        3.58026500       3.08895900      -1.16307800
H        1.54318800       2.02803800       1.87518200
H        1.99566600       3.75126800       1.96816000
H        3.01928200       2.59913200       1.08091000
23
Properties=species:S:1:pos:R:3 Coordinates=T from=T ORCA-job=T isoindene_irc_IRC_Full=T E=T -425.598823007667=T pbc="F F F"
C       -2.57329400       2.60993000       0.86038400
C       -2.68362500       1.29925800       0.39494800
C       -1.60121000       0.66547600      -0.22159200
C       -0.40584500       1.36731400      -0.36153500
C       -0.26838800       2.65809200       0.19475600
C       -1.35130500       3.29223700       0.78296300
H       -1.27009000       4.31711800       1.15551100
H       -3.44875400       3.10870200       1.28333800
H       -3.63415300       0.76883300       0.49413500
H       -1.69829100      -0.35358700      -0.60409900
C        1.16450500       3.08855600       0.01445900
C        1.69143100       2.08092700      -0.98419600
H        1.27132300       4.13098200      -0.33179800
C        0.82509200       1.04954800      -1.08544300
C        1.97662900       2.87229600       1.31448600
C        3.00317900       2.29267700      -1.66050500
H        0.98426000       0.13309600      -1.65699400
H        2.84394900       2.62829400      -2.69975400
H        3.62260300       1.38501600      -1.70071400
H        3.58264100       3.08476300      -1.16186500
H        1.54632000       2.02846900       1.87488100
H        1.98737200       3.75483900       1.96927300
H        3.02095800       2.60964200       1.08370800
23
Properties=species:S:1:pos:R:3 Coordinates=T from=T ORCA-job=T isoindene_irc_IRC_Full=T E=T -425.599018716601=T pbc="F F F"
C       -2.57229700       2.60913400       0.86223300
C       -2.68388100       1.29942700       0.39442800
C       -1.60223900       0.66611300      -0.22367100
C       -0.40629300       1.36729900      -0.36298200
C       -0.26780000       2.65730500       0.19460000
C       -1.34991100       3.29089000       0.78481000
H       -1.26769600       4.31519000       1.15935700
H       -3.44700500       3.10772700       1.28712500
H       -3.63450300       0.76962500       0.49330000
H       -1.70014800      -0.35248600      -0.60779500
C        1.16439000       3.08775400       0.01350700
C        1.69195300       2.07942200      -0.98367600
H        1.27100300       4.12959600      -0.33439200
C        0.82472000       1.04927900      -1.08666200
C        1.97626100       2.87555300       1.31582900
C        3.00394300       2.29027100      -1.66014700
H        0.98300200       0.13331800      -1.65967400
H        2.84471200       2.62771500      -2.69886000
H        3.62174400       1.38152800      -1.70217700
H        3.58497800       3.08048800      -1.16063700
H        1.54972000       2.02934500       1.87415400
H        1.97908100       3.75799800       1.97004800
H        3.02205500       2.62031300       1.08645700
23
Properties=species:S:1:pos:R:3 Coordinates=T from=T ORCA-job=T isoindene_irc_IRC_Full=T E=T -425.599209009129=T pbc="F F F"
C       -2.57122500       2.60859000       0.86414100
C       -2.68392500       1.29975100       0.39390500
C       -1.60309000       0.66652200      -0.22586100
C       -0.40678200       1.36706000      -0.36448700
C       -0.26761800       2.65647500       0.19441800
C       -1.34875100       3.28978100       0.78679400
H       -1.26537900       4.31306800       1.16306200
H       -3.44519500       3.10669100       1.29082900
H       -3.63510800       0.77025200       0.49249200
H       -1.70195700      -0.35119700      -0.61138200
C        1.16529500       3.08711600       0.01373000
C        1.69259300       2.07794600      -0.98340300
H        1.27063600       4.12830400      -0.33697700
C        0.82417600       1.04875100      -1.08788000
C        1.97484200       2.87927600       1.31542400
C        3.00462800       2.28779700      -1.65982500
H        0.98179100       0.13363300      -1.66216200
H        2.84550900       2.62715700      -2.69789300
H        3.62082300       1.37812600      -1.70358400
H        3.58735900       3.07631000      -1.15933900
H        1.55290800       2.02960200       1.87384800
H        1.97096700       3.76143200       1.97115700
H        3.02376000       2.63068900       1.08901500
23
Properties=species:S:1:pos:R:3 Coordinates=T from=T ORCA-job=T isoindene_irc_IRC_Full=T E=T -425.599394937969=T pbc="F F F"
C       -2.57028700       2.60774600       0.86594100
C       -2.68424000       1.29987400       0.39339600
C       -1.60415000       0.66723100      -0.22784700
C       -0.40721300       1.36713300      -0.36585600
C       -0.26696600       2.65575800       0.19428900
C       -1.34736300       3.28842000       0.78856400
H       -1.26308200       4.31123400       1.16684400
H       -3.44353200       3.10571400       1.29457300
H       -3.63539600       0.77106500       0.49165700
H       -1.70377600      -0.35013800      -0.61502900
C        1.16487700       3.08633100       0.01246700
C        1.69302200       2.07648800      -0.98285100
H        1.27028300       4.12697800      -0.33948600
C        0.82389300       1.04861100      -1.08901800
C        1.97478700       2.88231600       1.31711000
C        3.00539600       2.28547000      -1.65941100
H        0.98062100       0.13378800      -1.66465200
H        2.84634100       2.62664300      -2.69697800
H        3.61993600       1.37466800      -1.70497800
H        3.58966000       3.07204100      -1.15805100
H        1.55645600       2.03059000       1.87290700
H        1.96288100       3.76426000       1.97175100
H        3.02457300       2.64125300       1.09154800
23
Properties=species:S:1:pos:R:3 Coordinates=T from=T ORCA-job=T isoindene_irc_IRC_Full=T E=T -425.599571618132=T pbc="F F F"
C       -2.56926100       2.60729300       0.86780300
C       -2.68422400       1.30024400       0.39289700
C       -1.60490700       0.66756700      -0.22998200
C       -0.40770100       1.36683600      -0.36731100
C       -0.26693800       2.65496200       0.19411100
C       -1.34635000       3.28742700       0.79051400
H       -1.26091900       4.30915000       1.17035800
H       -3.44178300       3.10466900       1.29811700
H       -3.63606600       0.77161500       0.49087900
H       -1.70549300      -0.34881100      -0.61844400
C        1.16607100       3.08582100       0.01306300
C        1.69364700       2.07512400      -0.98267300
H        1.26987900       4.12580300      -0.34195400
C        0.82329100       1.04803100      -1.09014200
C        1.97309900       2.88602700       1.31606200
C        3.00605500       2.28307600      -1.65909100
H        0.97952200       0.13408600      -1.66687000
H        2.84718500       2.62615200      -2.69597600
H        3.61898500       1.37141100      -1.70628000
H        3.59197900       3.06800700      -1.15670600
H        1.55957300       2.03060300       1.87267800
H        1.95516600       3.76753500       1.97288200
H        3.02634700       2.65118900       1.09381200
23
Properties=species:S:1:pos:R:3 Coordinates=T from=T ORCA-job=T isoindene_irc_IRC_Full=T E=T -425.599743380889=T pbc="F F F"
C       -2.56840600       2.60640600       0.86949500
C       -2.68460900       1.30029200       0.39240900
C       -1.60599200       0.66834800      -0.23180500
C       -0.40810000       1.36701900      -0.36855600
C       -0.26620200       2.65433900       0.19401800
C       -1.34497800       3.28606800       0.79214200
H       -1.25877000       4.30747000       1.17398000
H       -3.44026000       3.10372900       1.30171800
H       -3.63625800       0.77244200       0.49006800
H       -1.70722900      -0.34784400      -0.62194600
C        1.16524600       3.08504500       0.01139000
C        1.69396200       2.07373500      -0.98208900
H        1.26951200       4.12456800      -0.34431400
C        0.82314000       1.04805600      -1.09117600
C        1.97347000       2.88872700       1.31825000
C        3.00679500       2.28089600      -1.65862200
H        0.97845900       0.13416600      -1.66913800
H        2.84805500       2.62571800      -2.69508300
H        3.61810900       1.36807100      -1.70757800
H        3.59417500       3.06385900      -1.15540500
H        1.56317800       2.03175100       1.87151800
H        1.94749300       3.76993900       1.97324500
H        3.02679800       2.66137000       1.09609200
23
Properties=species:S:1:pos:R:3 Coordinates=T from=T ORCA-job=T isoindene_irc_IRC_Full=T E=T -425.599902192533=T pbc="F F F"
C       -2.56746200       2.60605900       0.87124600
C       -2.68452200       1.30071100       0.39195500
C       -1.60661500       0.66858600      -0.23382400
C       -0.40857600       1.36665700      -0.36992000
C       -0.26633200       2.65358800       0.19383700
C       -1.34414900       3.28522800       0.79399900
H       -1.25682300       4.30548800       1.17718400
H       -3.43861900       3.10271500       1.30497300
H       -3.63697800       0.77289200       0.48935200
H       -1.70879800      -0.34652300      -0.62506400
C        1.16675400       3.08468300       0.01241100
C        1.69458200       2.07256000      -0.98200900
H        1.26908800       4.12353500      -0.34658700
C        0.82245300       1.04739200      -1.09218400
C        1.97151000       2.89232200       1.31651500
C        3.00741400       2.27865900      -1.65833600
H        0.97749600       0.13444800      -1.67104500
H        2.84890400       2.62530100      -2.69408000
H        3.61716300       1.36508000      -1.70874000
H        3.59634800       3.06011000      -1.15407200
H        1.56608700       2.03150300       1.87141700
H        1.94042500       3.77299200       1.97438700
H        3.02862200       2.67052200       1.09802000
23
Properties=species:S:1:pos:R:3 Coordinates=T from=T ORCA-job=T isoindene_irc_IRC_Full=T E=T -425.600059223832=T pbc="F F F"
C       -2.56668300       2.60515600       0.87281000
C       -2.68496600       1.30068800       0.39149700
C       -1.60770500       0.66941500      -0.23547000
C       -0.40893500       1.36694400      -0.37103300
C       -0.26553900       2.65305900       0.19378400
C       -1.34281200       3.28389900       0.79547400
H       -1.25483800       4.30396400       1.18059900
H       -3.43724800       3.10182700       1.30838000
H       -3.63708300       0.77371500       0.48857800
H       -1.71043200      -0.34566400      -0.62837600
C        1.16555900       3.08391000       0.01038300
C        1.69481400       2.07125100      -0.98141700
H        1.26871700       4.12240200      -0.34877700
C        0.82243500       1.04753700      -1.09313200
C        1.97226200       2.89468200       1.31914500
C        3.00809000       2.27664000      -1.65781600
H        0.97653400       0.13448500      -1.67308100
H        2.84978800       2.62494600      -2.69323100
H        3.61632000       1.36190100      -1.70993700
H        3.59841700       3.05615000      -1.15278400
H        1.56966800       2.03279000       1.87008900
H        1.93325400       3.77498800       1.97454100
H        3.02874500       2.68017800       1.10004800
23
Properties=species:S:1:pos:R:3 Coordinates=T from=T ORCA-job=T isoindene_irc_IRC_Full=T E=T -425.600123882190=T pbc="F F F"
C       -2.56633300       2.60504000       0.87347600
C       -2.68491200       1.30087800       0.39133300
C       -1.60791000       0.66947000      -0.23624900
C       -0.40912500       1.36678700      -0.37154700
C       -0.26563600       2.65276400       0.19370400
C       -1.34253700       3.28360800       0.79619100
H       -1.25412200       4.30320400       1.18179000
H       -3.43662500       3.10143100       1.30959700
H       -3.63738500       0.77386600       0.48831000
H       -1.71101500      -0.34513100      -0.62953200
C        1.16627100       3.08381000       0.01093900
C        1.69506700       2.07085000      -0.98141100
H        1.26854000       4.12202900      -0.34963100
C        0.82213000       1.04722700      -1.09351200
C        1.97138300       2.89608600       1.31822000
C        3.00832500       2.27578900      -1.65771400
H        0.97618800       0.13460500      -1.67374400
H        2.85013100       2.62480200      -2.69282500
H        3.61594100       1.36078500      -1.71036100
H        3.59924000       3.05473000      -1.15225100
H        1.57077500       2.03261400       1.87008800
H        1.93061600       3.77614400       1.97500200
H        3.02948800       2.68361200       1.10072200
23
Properties=species:S:1:pos:R:3 Coordinates=T from=T ORCA-job=T isoindene_irc_IRC_Full=T E=T -425.600208738174=T pbc="F F F"
C       -2.56586200       2.60466900       0.87434000
C       -2.68503300       1.30108500       0.39114000
C       -1.60830000       0.66965100      -0.23729000
C       -0.40935300       1.36685800      -0.37215300
C       -0.26550200       2.65236900       0.19361600
C       -1.34201200       3.28308400       0.79711100
H       -1.25309500       4.30224500       1.18353500
H       -3.43582900       3.10091400       1.31137200
H       -3.63762800       0.77418500       0.48791000
H       -1.71186300      -0.34449400      -0.63122200
C        1.16645100       3.08351200       0.01082400
C        1.69566100       2.07059500      -0.98123700
H        1.26831200       4.12147100      -0.35082400
C        0.82166400       1.04656000      -1.09417000
C        1.97093900       2.89772100       1.31820100
C        3.00857800       2.27459300      -1.65747900
H        0.97568600       0.13482400      -1.67466000
H        2.85062300       2.62461600      -2.69230400
H        3.61544400       1.35914500      -1.71097600
H        3.60038400       3.05267500      -1.15149800
H        1.57253500       2.03282300       1.86972800
H        1.92684700       3.77747500       1.97536600
H        3.03004300       2.68862200       1.10171200
23
Properties=species:S:1:pos:R:3 Coordinates=T from=T ORCA-job=T isoindene_irc_IRC_Full=T E=T -425.600299328048=T pbc="F F F"
C       -2.56537600       2.60428300       0.87530300
C       -2.68515200       1.30120500       0.39088100
C       -1.60880400       0.66997400      -0.23835100
C       -0.40959800       1.36686300      -0.37285700
C       -0.26530400       2.65200300       0.19355200
C       -1.34138900       3.28245100       0.79807900
H       -1.25197000       4.30123100       1.18546400
H       -3.43496400       3.10034500       1.31332000
H       -3.63786300       0.77456100       0.48747200
H       -1.71279500      -0.34385000      -0.63309600
C        1.16649400       3.08319500       0.01048100
C        1.69591300       2.06991000      -0.98104000
H        1.26805600       4.12085100      -0.35211500
C        0.82145700       1.04639400      -1.09473900
C        1.97063300       2.89943700       1.31847300
C        3.00894900       2.27335100      -1.65722000
H        0.97514700       0.13491700      -1.67573900
H        2.85117100       2.62442000      -2.69173600
H        3.61489500       1.35733400      -1.71164900
H        3.60162900       3.05039000      -1.15068300
H        1.57451200       2.03314400       1.86925100
H        1.92271500       3.77886100       1.97569800
H        3.03054100       2.69414600       1.10278900
23
Properties=species:S:1:pos:R:3 Coordinates=T from=T ORCA-job=T isoindene_irc_IRC_Full=T E=T -425.600389223899=T pbc="F F F"
C       -2.56487000       2.60394000       0.87627800
C       -2.68523900       1.30135100       0.39062100
C       -1.60927300       0.67024700      -0.23944200
C       -0.40984600       1.36682700      -0.37357800
C       -0.26517300       2.65162400       0.19347700
C       -1.34080800       3.28184700       0.79907200
H       -1.25085500       4.30018700       1.18737700
H       -3.43408900       3.09976500       1.31526100
H       -3.63814100       0.77491100       0.48703600
H       -1.71372000      -0.34316200      -0.63495200
C        1.16671900       3.08289700       0.01035300
C        1.69620100       2.06926700      -0.98087500
H        1.26779000       4.12025600      -0.35341500
C        0.82117100       1.04617300      -1.09529000
C        1.97014200       2.90122800       1.31843200
C        3.00932800       2.27209600      -1.65697200
H        0.97462100       0.13500800      -1.67680000
H        2.85172900       2.62422800      -2.69114900
H        3.61433000       1.35553300      -1.71231500
H        3.60288000       3.04810500      -1.14985000
H        1.57646900       2.03336100       1.86884400
H        1.91859500       3.78029800       1.97608900
H        3.03114200       2.69964800       1.10383500
23
Properties=species:S:1:pos:R:3 Coordinates=T from=T ORCA-job=T isoindene_irc_IRC_Full=T E=T -425.600478435115=T pbc="F F F"
C       -2.56439900       2.60354500       0.87723800
C       -2.68536300       1.30146700       0.39036200
C       -1.60978400       0.67058900      -0.24048800
C       -0.41010100       1.36684200      -0.37427100
C       -0.26496900       2.65127100       0.19341800
C       -1.34018200       3.28121100       0.80002900
H       -1.24974400       4.29918000       1.18929900
H       -3.43323100       3.09918900       1.31720600
H       -3.63837000       0.77528900       0.48659700
H       -1.71464900      -0.34252600      -0.63682500
C        1.16672000       3.08260300       0.00997200
C        1.69641600       2.06856900      -0.98067800
H        1.26752200       4.11964200      -0.35469800
C        0.82099300       1.04603400      -1.09585000
C        1.96988000       2.90292400       1.31874200
C        3.00970600       2.27086500      -1.65670400
H        0.97409500       0.13508900      -1.67784800
H        2.85229900       2.62404900      -2.69056900
H        3.61377000       1.35371700      -1.71298000
H        3.60412800       3.04580700      -1.14901100
H        1.57848800       2.03370200       1.86833300
H        1.91448500       3.78162600       1.97638700
H        3.03159100       2.70518100       1.10486900
23
Properties=species:S:1:pos:R:3 Coordinates=T from=T ORCA-job=T isoindene_irc_IRC_Full=T E=T -425.600567116061=T pbc="F F F"
C       -2.56389600       2.60320000       0.87821200
C       -2.68545900       1.30160700       0.39010300
C       -1.61025700       0.67086600      -0.24157400
C       -0.41034400       1.36681200      -0.37498900
C       -0.26483800       2.65089800       0.19334400
C       -1.33961000       3.28060800       0.80102100
H       -1.24863900       4.29813800       1.19120800
H       -3.43236400       3.09860300       1.31914700
H       -3.63864600       0.77564000       0.48616100
H       -1.71557300      -0.34183400      -0.63867800
C        1.16692600       3.08230200       0.00982400
C        1.69669900       2.06794100      -0.98051700
H        1.26724300       4.11906100      -0.35599500
C        0.82070400       1.04582800      -1.09638500
C        1.96940700       2.90470500       1.31870200
C        3.01008300       2.26961100      -1.65644200
H        0.97358200       0.13516600      -1.67888400
H        2.85287900       2.62387300      -2.68996900
H        3.61319000       1.35191200      -1.71363900
H        3.60538300       3.04350400      -1.14815400
H        1.58048400       2.03392900       1.86789900
H        1.91037900       3.78302200       1.97675700
H        3.03216000       2.71069900       1.10587600
23
Properties=species:S:1:pos:R:3 Coordinates=T from=T ORCA-job=T isoindene_irc_IRC_Full=T E=T -425.600655157405=T pbc="F F F"
C       -2.56343400       2.60280000       0.87917300
C       -2.68557800       1.30172800       0.38984500
C       -1.61076600       0.67121200      -0.24261700
C       -0.41060900       1.36682700      -0.37567400
C       -0.26464500       2.65054800       0.19328700
C       -1.33898800       3.27997400       0.80197800
H       -1.24753900       4.29713100       1.19312800
H       -3.43150900       3.09801900       1.32109100
H       -3.63888200       0.77601500       0.48572100
H       -1.71650100      -0.34119100      -0.64054700
C        1.16693300       3.08203000       0.00945100
C        1.69690100       2.06724500      -0.98032600
H        1.26696100       4.11845400      -0.35727400
C        0.82053400       1.04568400      -1.09694800
C        1.96913800       2.90640800       1.31897000
C        3.01046500       2.26838000      -1.65616900
H        0.97306600       0.13524800      -1.67989900
H        2.85347100       2.62370800      -2.68937300
H        3.61261500       1.35009200      -1.71429700
H        3.60663600       3.04118800      -1.14728800
H        1.58253600       2.03426100       1.86737600
H        1.90628100       3.78432200       1.97704500
H        3.03259500       2.71624600       1.10687200
23
Properties=species:S:1:pos:R:3 Coordinates=T from=T ORCA-job=T isoindene_irc_IRC_Full=T E=T -425.600742643535=T pbc="F F F"
C       -2.56293300       2.60245300       0.88014600
C       -2.68568500       1.30186300       0.38958800
C       -1.61124300       0.67149400      -0.24369600
C       -0.41084300       1.36680500      -0.37639000
C       -0.26451100       2.65018100       0.19321400
C       -1.33842500       3.27937000       0.80296700
H       -1.24644600       4.29609100       1.19503400
H       -3.43065000       3.09742500       1.32303300
H       -3.63915400       0.77636800       0.48528400
H       -1.71742400      -0.34049600      -0.64239700
C        1.16711500       3.08172700       0.00928200
C        1.69718200       2.06663100      -0.98017000
H        1.26667000       4.11788600      -0.35856900
C        0.82023700       1.04549200      -1.09746600
C        1.96868700       2.90817800       1.31893700
C        3.01084000       2.26712800      -1.65589300
H        0.97256400       0.13531200      -1.68091200
H        2.85407200       2.62355000      -2.68876200
H        3.61202200       1.34828300      -1.71495100
H        3.60789400       3.03886700      -1.14640600
H        1.58457300       2.03450300       1.86691500
H        1.90219000       3.78567500       1.97739200
H        3.03313000       2.72178000       1.10784100
23
Properties=species:S:1:pos:R:3 Coordinates=T from=T ORCA-job=T isoindene_irc_IRC_Full=T E=T -425.600829517757=T pbc="F F F"
C       -2.56247800       2.60205000       0.88110700
C       -2.68579700       1.30199100       0.38933100
C       -1.61174900       0.67184100      -0.24473800
C       -0.41112200       1.36682100      -0.37706800
C       -0.26433200       2.64983400       0.19315900
C       -1.33780800       3.27873900       0.80392400
H       -1.24535500       4.29508100       1.19694900
H       -3.42979900       3.09683400       1.32497700
H       -3.63939900       0.77673800       0.48484500
H       -1.71835000      -0.33984500      -0.64426300
C        1.16713700       3.08147400       0.00892300
C        1.69737100       2.06593900      -0.97998400
H        1.26637400       4.11728500      -0.35984400
C        0.82007500       1.04534000      -1.09803200
C        1.96840600       2.90988900       1.31915600
C        3.01122600       2.26589700      -1.65561500
H        0.97205700       0.13539500      -1.68189500
H        2.85468600       2.62340000      -2.68814900
H        3.61143100       1.34645900      -1.71560400
H        3.60915200       3.03653300      -1.14551500
H        1.58665600       2.03482800       1.86638300
H        1.89810400       3.78694700       1.97766900
H        3.03355200       2.72734000       1.10880000
23
Properties=species:S:1:pos:R:3 Coordinates=T from=T ORCA-job=T isoindene_irc_IRC_Full=T E=T -425.600915840848=T pbc="F F F"
C       -2.56198000       2.60170100       0.88208000
C       -2.68591900       1.30212100       0.38907700
C       -1.61223500       0.67212400      -0.24581200
C       -0.41134400       1.36680300      -0.37778400
C       -0.26419300       2.64947400       0.19308800
C       -1.33725700       3.27813400       0.80491200
H       -1.24427200       4.29404300       1.19885100
H       -3.42894500       3.09623400       1.32691800
H       -3.63966600       0.77709500       0.48440600
H       -1.71927100      -0.33914600      -0.64610900
C        1.16729300       3.08116700       0.00873300
C        1.69765700       2.06534200      -0.97983200
H        1.26607200       4.11673300      -0.36113900
C        0.81976600       1.04515800      -1.09853600
C        1.96797400       2.91165100       1.31912800
C        3.01159700       2.26464500      -1.65532500
H        0.97156800       0.13544700      -1.68288700
H        2.85530900       2.62325800      -2.68752600
H        3.61082600       1.34464500      -1.71625300
H        3.61041400       3.03419300      -1.14460700
H        1.58873000       2.03508200       1.86589700
H        1.89402700       3.78826300       1.97799600
H        3.03405400       2.73289000       1.10973200
23
Properties=species:S:1:pos:R:3 Coordinates=T from=T ORCA-job=T isoindene_irc_IRC_Full=T E=T -425.601001537521=T pbc="F F F"
C       -2.56153100       2.60129800       0.88304100
C       -2.68602200       1.30225500       0.38881900
C       -1.61273100       0.67247300      -0.24685300
C       -0.41163800       1.36682400      -0.37845200
C       -0.26403100       2.64912500       0.19303300
C       -1.33664300       3.27750600       0.80586700
H       -1.24319400       4.29303000       1.20076000
H       -3.42809900       3.09563500       1.32885900
H       -3.63992200       0.77745900       0.48396800
H       -1.72019600      -0.33848900      -0.64796900
C        1.16732800       3.08093400       0.00838800
C        1.69783500       2.06466000      -0.97965200
H        1.26576200       4.11613600      -0.36241100
C        0.81960700       1.04499800      -1.09910300
C        1.96768400       2.91336700       1.31930300
C        3.01198800       2.26341500      -1.65504300
H        0.97107000       0.13553100      -1.68384000
H        2.85594400       2.62312400      -2.68689600
H        3.61022000       1.34281900      -1.71690000
H        3.61167600       3.03184100      -1.14369000
H        1.59084500       2.03540500       1.86535300
H        1.88995700       3.78950400       1.97826100
H        3.03445800       2.73846000       1.11065400
23
Properties=species:S:1:pos:R:3 Coordinates=T from=T ORCA-job=T isoindene_irc_IRC_Full=T E=T -425.601086698361=T pbc="F F F"
C       -2.56103400       2.60094700       0.88401200
C       -2.68615900       1.30237600       0.38856800
C       -1.61322800       0.67275800      -0.24792000
C       -0.41184400       1.36680700      -0.37917200
C       -0.26388400       2.64877800       0.19296500
C       -1.33610200       3.27690100       0.80685400
H       -1.24212000       4.29199300       1.20265800
H       -3.42725200       3.09502800       1.33079900
H       -3.64018100       0.77782000       0.48352900
H       -1.72111600      -0.33778700      -0.64981200
C        1.16745800       3.08062200       0.00818100
C        1.69811600       2.06407000      -0.97950700
H        1.26544800       4.11559700      -0.36370500
C        0.81929200       1.04483900      -1.09958800
C        1.96726900       2.91512200       1.31927600
C        3.01235400       2.26216400      -1.65474000
H        0.97059100       0.13556700      -1.68481300
H        2.85658800       2.62299900      -2.68626200
H        3.60960200       1.34100000      -1.71754600
H        3.61294200       3.02948300      -1.14275700
H        1.59295600       2.03567400       1.86484500
H        1.88589400       3.79078100       1.97856700
H        3.03492900       2.74402500       1.11155100
23
Properties=species:S:1:pos:R:3 Coordinates=T from=T ORCA-job=T isoindene_irc_IRC_Full=T E=T -425.601171209922=T pbc="F F F"
C       -2.56059100       2.60054000       0.88497200
C       -2.68625500       1.30251800       0.38831200
C       -1.61371500       0.67310800      -0.24896100
C       -0.41215400       1.36683500      -0.37982800
C       -0.26373900       2.64842400       0.19291000
C       -1.33549300       3.27627400       0.80780700
H       -1.24105200       4.29098000       1.20456200
H       -3.42641000       3.09442200       1.33273800
H       -3.64044700       0.77817800       0.48309100
H       -1.72203900      -0.33712400      -0.65166500
C        1.16750500       3.08040900       0.00784200
C        1.69829000       2.06340500      -0.97933100
H        1.26512500       4.11500600      -0.36497300
C        0.81913200       1.04465900      -1.10016200
C        1.96697500       2.91684200       1.31941400
C        3.01274900       2.26093500      -1.65445300
H        0.97010200       0.13565500      -1.68573500
H        2.85724400       2.62288100      -2.68561700
H        3.60898000       1.33917400      -1.71818900
H        3.61420600       3.02711300      -1.14181500
H        1.59510200       2.03599800       1.86429000
H        1.88184200       3.79199200       1.97881800
H        3.03531300       2.74960500       1.11243600
23
Properties=species:S:1:pos:R:3 Coordinates=T from=T ORCA-job=T isoindene_irc_IRC_Full=T E=T -425.601255224119=T pbc="F F F"
C       -2.56009900       2.60019200       0.88594400
C       -2.68640100       1.30262500       0.38805800
C       -1.61422400       0.67340000      -0.25001800
C       -0.41234500       1.36681200      -0.38055700
C       -0.26358300       2.64809100       0.19284400
C       -1.33496000       3.27567200       0.80879300
H       -1.23998800       4.28994200       1.20645500
H       -3.42556900       3.09380800       1.33467600
H       -3.64070100       0.77854200       0.48265200
H       -1.72295800      -0.33642000      -0.65350400
C        1.16761200       3.08009100       0.00762500
C        1.69855300       2.06280700      -0.97919400
H        1.26479800       4.11448100      -0.36626700
C        0.81881800       1.04454500      -1.10062000
C        1.96657100       2.91859300       1.31938300
C        3.01311500       2.25968700      -1.65413800
H        0.96963500       0.13567100      -1.68669500
H        2.85790900       2.62277400      -2.68497100
H        3.60834900       1.33735000      -1.71883200
H        3.61547600       3.02473500      -1.14085800
H        1.59724900       2.03628000       1.86376000
H        1.87779500       3.79323300       1.97910600
H        3.03575400       2.75518400       1.11329900
23
Properties=species:S:1:pos:R:3 Coordinates=T from=T ORCA-job=T isoindene_irc_IRC_Full=T E=T -425.601338544364=T pbc="F F F"
C       -2.55965600       2.59978200       0.88690000
C       -2.68650200       1.30277600       0.38780900
C       -1.61470500       0.67374300      -0.25106000
C       -0.41266000       1.36684800      -0.38120400
C       -0.26345200       2.64773700       0.19279000
C       -1.33436200       3.27504100       0.80974200
H       -1.23893100       4.28893000       1.20835300
H       -3.42473400       3.09319600       1.33661200
H       -3.64097100       0.77889600       0.48221600
H       -1.72387900      -0.33575000      -0.65534900
C        1.16766300       3.07989100       0.00728800
C        1.69873200       2.06216500      -0.97902300
H        1.26446200       4.11389600      -0.36753200
C        0.81865100       1.04434300      -1.10119900
C        1.96627700       2.92031400       1.31949100
C        3.01350800       2.25845800      -1.65384400
H        0.96915400       0.13576200      -1.68758800
H        2.85858500       2.62267300      -2.68431000
H        3.60771300       1.33552200      -1.71947200
H        3.61674300       3.02234800      -1.13989000
H        1.59942300       2.03660800       1.86319400
H        1.87376400       3.79441200       1.97934300
H        3.03611500       2.76077000       1.11414700
23
Properties=species:S:1:pos:R:3 Coordinates=T from=T ORCA-job=T isoindene_irc_IRC_Full=T E=T -425.601421457190=T pbc="F F F"
C       -2.55919200       2.59942500       0.88787500
C       -2.68662500       1.30287600       0.38754500
C       -1.61521700       0.67406400      -0.25210100
C       -0.41287300       1.36682500      -0.38192300
C       -0.26329500       2.64740200       0.19272100
C       -1.33381900       3.27445400       0.81072900
H       -1.23787700       4.28788500       1.21024000
H       -3.42389100       3.09257400       1.33854600
H       -3.64123400       0.77925600       0.48177800
H       -1.72479700      -0.33505500      -0.65718900
C        1.16775900       3.07958300       0.00706200
C        1.69897200       2.06156300      -0.97888800
H        1.26412200       4.11337800      -0.36882500
C        0.81835500       1.04424200      -1.10165600
C        1.96588000       2.92206000       1.31945100
C        3.01388000       2.25721000      -1.65352100
H        0.96869400       0.13577300      -1.68852600
H        2.85927100       2.62258200      -2.68365100
H        3.60706700       1.33369500      -1.72011300
H        3.61801700       3.01995000      -1.13890800
H        1.60160500       2.03690500       1.86264500
H        1.86973100       3.79562200       1.97961300
H        3.03653000       2.76636500       1.11497700
23
Properties=species:S:1:pos:R:3 Coordinates=T from=T ORCA-job=T isoindene_irc_IRC_Full=T E=T -425.601503635069=T pbc="F F F"
C       -2.55873800       2.59901400       0.88882600
C       -2.68674400       1.30303200       0.38730500
C       -1.61569700       0.67439300      -0.25314700
C       -0.41318100       1.36686800      -0.38256800
C       -0.26317500       2.64705700       0.19267300
C       -1.33323400       3.27381000       0.81167100
H       -1.23682900       4.28687900       1.21213400
H       -3.42306600       3.09195600       1.34048000
H       -3.64150000       0.77961100       0.48134100
H       -1.72571600      -0.33437400      -0.65902600
C        1.16780500       3.07939900       0.00671500
C        1.69914600       2.06092800      -0.97872200
H        1.26377200       4.11279600      -0.37008600
C        0.81818500       1.04404000      -1.10223100
C        1.96559900       2.92378600       1.31954400
C        3.01427300       2.25598500      -1.65322000
H        0.96822100       0.13586200      -1.68939600
H        2.85996900       2.62249800      -2.68297400
H        3.60641700       1.33186400      -1.72075100
H        3.61928600       3.01754300      -1.13791600
H        1.60381000       2.03724100       1.86206500
H        1.86571800       3.79676600       1.97983100
H        3.03685900       2.77196200       1.11579000
23
Properties=species:S:1:pos:R:3 Coordinates=T from=T ORCA-job=T isoindene_irc_IRC_Full=T E=T -425.601585384593=T pbc="F F F"
C       -2.55827300       2.59864800       0.88979500
C       -2.68687700       1.30314500       0.38705100
C       -1.61619600       0.67470800      -0.25419200
C       -0.41340400       1.36686400      -0.38327200
C       -0.26302000       2.64671500       0.19260000
C       -1.33270400       3.27322500       0.81265700
H       -1.23578500       4.28583400       1.21401400
H       -3.42223200       3.09132900       1.34241300
H       -3.64176500       0.77996900       0.48090400
H       -1.72663400      -0.33367400      -0.66085900
C        1.16789000       3.07909300       0.00648500
C        1.69940900       2.06037100      -0.97858800
H        1.26342000       4.11229000      -0.37138000
C        0.81787000       1.04389200      -1.10270300
C        1.96520400       2.92552600       1.31948900
C        3.01463900       2.25473200      -1.65288800
H        0.96776900       0.13588400      -1.69030300
H        2.86067500       2.62242700      -2.68230300
H        3.60575700       1.33003400      -1.72139100
H        3.62056400       3.01512800      -1.13690600
H        1.60602400       2.03755300       1.86150000
H        1.86170600       3.79794400       1.98008500
H        3.03725000       2.77756500       1.11658400
23
Properties=species:S:1:pos:R:3 Coordinates=T from=T ORCA-job=T isoindene_irc_IRC_Full=T E=T -425.601666429467=T pbc="F F F"
C       -2.55782800       2.59823700       0.89074600
C       -2.68699200       1.30329500       0.38680800
C       -1.61668400       0.67504100      -0.25522900
C       -0.41371300       1.36690200      -0.38391700
C       -0.26291000       2.64637800       0.19255700
C       -1.33211900       3.27258000       0.81359400
H       -1.23474700       4.28482900       1.21590300
H       -3.42141000       3.09070500       1.34434300
H       -3.64203300       0.78032200       0.48046900
H       -1.72755100      -0.33299000      -0.66269000
C        1.16793300       3.07892600       0.00613000
C        1.69956100       2.05972700      -0.97842900
H        1.26305600       4.11171000      -0.37263700
C        0.81771100       1.04371700      -1.10326700
C        1.96493200       2.92725600       1.31956300
C        3.01503400       2.25351200      -1.65258000
H        0.96730400       0.13596200      -1.69115700
H        2.86139400       2.62235900      -2.68161000
H        3.60509300       1.32820000      -1.72202800
H        3.62183600       3.01270000      -1.13588900
H        1.60825800       2.03789700       1.86090900
H        1.85771200       3.79905700       1.98028600
H        3.03755000       2.78317100       1.11736400
23
Properties=species:S:1:pos:R:3 Coordinates=T from=T ORCA-job=T isoindene_irc_IRC_Full=T E=T -425.601747018735=T pbc="F F F"
C       -2.55737300       2.59787800       0.89171800
C       -2.68712300       1.30339200       0.38654800
C       -1.61719500       0.67536900      -0.25626000
C       -0.41392600       1.36688600      -0.38463000
C       -0.26275700       2.64604900       0.19248800
C       -1.33159200       3.27199300       0.81457500
H       -1.23371400       4.28378500       1.21777600
H       -3.42057900       3.09007000       1.34626900
H       -3.64229800       0.78067900       0.48003400
H       -1.72846600      -0.33229200      -0.66451800
C        1.16800800       3.07861900       0.00589700
C        1.69977800       2.05913600      -0.97830600
H        1.26269100       4.11121900      -0.37393100
C        0.81741700       1.04363700      -1.10370900
C        1.96454000       2.92899200       1.31949500
C        3.01541100       2.25226500      -1.65224000
H        0.96686100       0.13596000      -1.69205400
H        2.86212000       2.62230700      -2.68092600
H        3.60441700       1.32637000      -1.72266600
H        3.62311500       3.01026400      -1.13485600
H        1.61050300       2.03822500       1.86032700
H        1.85372400       3.80020300       1.98052300
H        3.03791400       2.78878100       1.11812200
23
Properties=species:S:1:pos:R:3 Coordinates=T from=T ORCA-job=T isoindene_irc_IRC_Full=T E=T -425.601826938232=T pbc="F F F"
C       -2.55692900       2.59746400       0.89266500
C       -2.68724400       1.30354400       0.38630900
C       -1.61768000       0.67569800      -0.25729800
C       -0.41423600       1.36692900      -0.38527200
C       -0.26264800       2.64571100       0.19244200
C       -1.33102100       3.27135400       0.81551300
H       -1.23268500       4.28277500       1.21965800
H       -3.41976300       3.08944000       1.34819600
H       -3.64256800       0.78103000       0.47960000
H       -1.72938100      -0.33160200      -0.66634100
C        1.16804900       3.07845700       0.00554600
C        1.69994600       2.05852200      -0.97815300
H        1.26231300       4.11064800      -0.37518800
C        0.81723800       1.04344300      -1.10427100
C        1.96426800       2.93072700       1.31953800
C        3.01579900       2.25104400      -1.65192300
H        0.96640500       0.13603600      -1.69288700
H        2.86286000       2.62225800      -2.68021800
H        3.60373900       1.32453200      -1.72330400
H        3.62439100       3.00781600      -1.13381200
H        1.61276500       2.03857600       1.85972700
H        1.84975100       3.80128800       1.98071100
H        3.03819200       2.79439500       1.11886800
23
Properties=species:S:1:pos:R:3 Coordinates=T from=T ORCA-job=T isoindene_irc_IRC_Full=T E=T -425.601906415224=T pbc="F F F"
C       -2.55647700       2.59709100       0.89363100
C       -2.68738100       1.30365500       0.38605700
C       -1.61818200       0.67601900      -0.25833100
C       -0.41446000       1.36693600      -0.38596700
C       -0.26250500       2.64537800       0.19237200
C       -1.33049700       3.27076500       0.81648900
H       -1.23166100       4.28173300       1.22152700
H       -3.41894000       3.08880000       1.35012000
H       -3.64283500       0.78138400       0.47916500
H       -1.73029600      -0.33090100      -0.66816300
C        1.16811300       3.07815700       0.00530200
C        1.70019400       2.05798600      -0.97802700
H        1.26193600       4.11016200      -0.37648200
C        0.81692300       1.04329500      -1.10474000
C        1.96388500       2.93245800       1.31946300
C        3.01616800       2.24979000      -1.65157400
H        0.96596700       0.13605400      -1.69375200
H        2.86360700       2.62222500      -2.67952000
H        3.60304900       1.32270000      -1.72394300
H        3.62567500       3.00536100      -1.13275200
H        1.61504100       2.03892300       1.85912900
H        1.84578300       3.80240300       1.98093000
H        3.03852700       2.80001600       1.11959200
23
Properties=species:S:1:pos:R:3 Coordinates=T from=T ORCA-job=T isoindene_irc_IRC_Full=T E=T -425.601985224889=T pbc="F F F"
C       -2.55603800       2.59667600       0.89457800
C       -2.68750100       1.30380300       0.38581700
C       -1.61866900       0.67635300      -0.25936300
C       -0.41477400       1.36697300      -0.38660900
C       -0.26240200       2.64504500       0.19232800
C       -1.32993100       3.27012500       0.81742500
H       -1.23064200       4.28072300       1.22340200
H       -3.41812900       3.08816300       1.35204300
H       -3.64310700       0.78173300       0.47873300
H       -1.73121000      -0.33020900      -0.66998100
C        1.16815000       3.07801400       0.00494500
C        1.70033700       2.05735500      -0.97788100
H        1.26154400       4.10959200      -0.37773600
C        0.81675600       1.04313300      -1.10529100
C        1.96362300       2.93420000       1.31948800
C        3.01656100       2.24857600      -1.65125200
H        0.96551800       0.13612000      -1.69457000
H        2.86436700       2.62219400      -2.67879500
H        3.60235600       1.32085800      -1.72458100
H        3.62695300       3.00289100      -1.13168300
H        1.61732900       2.03928600       1.85851800
H        1.84183300       3.80345800       1.98110200
H        3.03877400       2.80563800       1.12030500
23
Properties=species:S:1:pos:R:3 Coordinates=T from=T ORCA-job=T isoindene_irc_IRC_Full=T E=T -425.602063569474=T pbc="F F F"
C       -2.55559400       2.59631000       0.89554500
C       -2.68763900       1.30389800       0.38556100
C       -1.61918100       0.67668400      -0.26038400
C       -0.41499000       1.36696800      -0.38731200
C       -0.26225600       2.64472300       0.19226000
C       -1.32941500       3.26953700       0.81839800
H       -1.22962700       4.27968000       1.22526300
H       -3.41730900       3.08751500       1.35396100
H       -3.64337300       0.78208700       0.47830000
H       -1.73212300      -0.32950900      -0.67179700
C        1.16820600       3.07770900       0.00469900
C        1.70053700       2.05678500      -0.97776500
H        1.26115400       4.10912300      -0.37903300
C        0.81646500       1.04305700      -1.10572900
C        1.96323900       2.93592700       1.31939800
C        3.01694000       2.24732700      -1.65089400
H        0.96508900       0.13611300      -1.69542900
H        2.86513400       2.62218100      -2.67808400
H        3.60165000       1.31902600      -1.72522200
H        3.62823900       3.00041300      -1.13059900
H        1.61963500       2.03965200       1.85790500
H        1.83789000       3.80454600       1.98130600
H        3.03908600       2.81126300       1.12099500
23
Properties=species:S:1:pos:R:3 Coordinates=T from=T ORCA-job=T isoindene_irc_IRC_Full=T E=T -425.602141255360=T pbc="F F F"
C       -2.55515800       2.59589400       0.89648900
C       -2.68776200       1.30404700       0.38532400
C       -1.61966700       0.67701500      -0.26141400
C       -0.41530200       1.36700900      -0.38795300
C       -0.26215800       2.64439100       0.19221500
C       -1.32885900       3.26890100       0.81933200
H       -1.22861800       4.27866700       1.22713000
H       -3.41650300       3.08687200       1.35587900
H       -3.64364700       0.78243200       0.47786900
H       -1.73303500      -0.32881200      -0.67360800
C        1.16823700       3.07757200       0.00434300
C        1.70069500       2.05618300      -0.97762500
H        1.26074900       4.10856100      -0.38028700
C        0.81627700       1.04287700      -1.10627800
C        1.96297900       2.93767200       1.31939700
C        3.01732700       2.24611200      -1.65056300
H        0.96464700       0.13617800      -1.69622900
H        2.86591400       2.62217000      -2.67734400
H        3.60094200       1.31718100      -1.72586200
H        3.62952200       2.99792300      -1.12950400
H        1.62194900       2.04002600       1.85728600
H        1.83396500       3.80557400       1.98146200
H        3.03930800       2.81689100       1.12167300
23
Properties=species:S:1:pos:R:3 Coordinates=T from=T ORCA-job=T isoindene_irc_IRC_Full=T E=T -425.602218506880=T pbc="F F F"
C       -2.55471600       2.59551100       0.89744800
C       -2.68790400       1.30415900       0.38507700
C       -1.62016800       0.67734000      -0.26244000
C       -0.41553700       1.36703000      -0.38863400
C       -0.26202600       2.64406200       0.19214700
C       -1.32834300       3.26830800       0.82029800
H       -1.22761300       4.27762700       1.22898700
H       -3.41569100       3.08622000       1.35779500
H       -3.64391700       0.78278200       0.47743800
H       -1.73394700      -0.32810900      -0.67541700
C        1.16828600       3.07728000       0.00408600
C        1.70092500       2.05566700      -0.97750400
H        1.26034500       4.10809400      -0.38158300
C        0.81597000       1.04272700      -1.10675000
C        1.96260300       2.93939600       1.31929800
C        3.01769900       2.24485700      -1.65019700
H        0.96422100       0.13619500      -1.69705600
H        2.86670200       2.62217700      -2.67661800
H        3.60022100       1.31534600      -1.72650500
H        3.63081200       2.99542500      -1.12839200
H        1.62428300       2.04041300       1.85665900
H        1.83004500       3.80663300       1.98164900
H        3.03959100       2.82252500       1.12233000
23
Properties=species:S:1:pos:R:3 Coordinates=T from=T ORCA-job=T isoindene_irc_IRC_Full=T E=T -425.602295080785=T pbc="F F F"
C       -2.55428600       2.59509500       0.89839200
C       -2.68802700       1.30430100       0.38483900
C       -1.62065900       0.67767500      -0.26346300
C       -0.41585000       1.36706300      -0.38927800
C       -0.26193200       2.64373600       0.19210500
C       -1.32779300       3.26767100       0.82122900
H       -1.22661200       4.27661300       1.23084800
H       -3.41488900       3.08557000       1.35970900
H       -3.64419200       0.78312600       0.47700800
H       -1.73485700      -0.32741100      -0.67722200
C        1.16831100       3.07716600       0.00372100
C        1.70105700       2.05504500      -0.97737400
H        1.25992600       4.10753000      -0.38283500
C        0.81579400       1.04258300      -1.10728600
C        1.96236000       2.94115100       1.31928300
C        3.01808900       2.24365000      -1.64986100
H        0.96378600       0.13624900      -1.69784400
H        2.86750300       2.62218500      -2.67586000
H        3.59950000       1.31349700      -1.72714700
H        3.63209800       2.99291100      -1.12727300
H        1.62662200       2.04079900       1.85603100
H        1.82614600       3.80763100       1.98178800
H        3.03977900       2.82815800       1.12297700
23
Properties=species:S:1:pos:R:3 Coordinates=T from=T ORCA-job=T isoindene_irc_IRC_Full=T E=T -425.602371196982=T pbc="F F F"
C       -2.55384900       2.59472000       0.89935200
C       -2.68817000       1.30440100       0.38458900
C       -1.62117500       0.67800900      -0.26447500
C       -0.41607200       1.36707100      -0.38997000
C       -0.26179700       2.64342300       0.19203900
C       -1.32729300       3.26707900       0.82219500
H       -1.22561700       4.27556900       1.23269500
H       -3.41407800       3.08490900       1.36161700
H       -3.64445900       0.78347600       0.47657900
H       -1.73576700      -0.32670900      -0.67902600
C        1.16835400       3.07685600       0.00347000
C        1.70124700       2.05450400      -0.97726300
H        1.25950900       4.10708800      -0.38413700
C        0.81550300       1.04249900      -1.10772700
C        1.96197400       2.94286800       1.31916600
C        3.01847000       2.24239500      -1.64948500
H        0.96337000       0.13624000      -1.69866800
H        2.86830900       2.62221400      -2.67512200
H        3.59876100       1.31166300      -1.72779300
H        3.63339100       2.99039100      -1.12613600
H        1.62898300       2.04120900       1.85539100
H        1.82225600       3.80866600       1.98196100
H        3.04004300       2.83379400       1.12359700
23
Properties=species:S:1:pos:R:3 Coordinates=T from=T ORCA-job=T isoindene_irc_IRC_Full=T E=T -425.602446658783=T pbc="F F F"
C       -2.55342400       2.59430200       0.90029400
C       -2.68829900       1.30453700       0.38435100
C       -1.62165900       0.67834000      -0.26549800
C       -0.41638000       1.36710900      -0.39061200
C       -0.26170200       2.64309200       0.19199200
C       -1.32674600       3.26644900       0.82312400
H       -1.22462700       4.27455500       1.23454900
H       -3.41328600       3.08425500       1.36352700
H       -3.64473700       0.78381700       0.47615200
H       -1.73667700      -0.32600600      -0.68082300
C        1.16836900       3.07674500       0.00310500
C        1.70139900       2.05391500      -0.97713700
H        1.25907700       4.10653100      -0.38539000
C        0.81529800       1.04233600      -1.10825800
C        1.96173300       2.94462800       1.31912700
C        3.01885400       2.24118700      -1.64914100
H        0.96294200       0.13629500      -1.69944000
H        2.86913100       2.62224200      -2.67434700
H        3.59802400       1.30981200      -1.72844000
H        3.63468100       2.98785400      -1.12499000
H        1.63134600       2.04161000       1.85475500
H        1.81838500       3.80964000       1.98208600
H        3.04020500       2.83943100       1.12421000
23
Properties=species:S:1:pos:R:3 Coordinates=T from=T ORCA-job=T isoindene_irc_IRC_Full=T E=T -425.602521722026=T pbc="F F F"
C       -2.55299100       2.59391000       0.90124800
C       -2.68844500       1.30465400       0.38411100
C       -1.62215800       0.67866900      -0.26651700
C       -0.41662900       1.36714500      -0.39127900
C       -0.26158200       2.64276600       0.19192200
C       -1.32624400       3.26585500       0.82408600
H       -1.22363900       4.27351100       1.23639200
H       -3.41248200       3.08359000       1.36543500
H       -3.64501000       0.78416100       0.47572400
H       -1.73758700      -0.32530300      -0.68262300
C        1.16841500       3.07643700       0.00284900
C        1.70160600       2.05342000      -0.97702100
H        1.25864600       4.10609600      -0.38669500
C        0.81500500       1.04218800      -1.10873500
C        1.96134000       2.94633700       1.31899300
C        3.01923100       2.23992300      -1.64875300
H        0.96252600       0.13631000      -1.70023300
H        2.86995700       2.62229200      -2.67359500
H        3.59726900       1.30797700      -1.72909100
H        3.63597900       2.98531000      -1.12382600
H        1.63373600       2.04204500       1.85410100
H        1.81451900       3.81065600       1.98224700
H        3.04044900       2.84507700       1.12479800
23
Properties=species:S:1:pos:R:3 Coordinates=T from=T ORCA-job=T isoindene_irc_IRC_Full=T E=T -425.602595990401=T pbc="F F F"
C       -2.55257100       2.59349000       0.90218500
C       -2.68857400       1.30478800       0.38387400
C       -1.62265300       0.67900100      -0.26753200
C       -0.41693500       1.36717300      -0.39192800
C       -0.26149200       2.64244800       0.19188400
C       -1.32570700       3.26522000       0.82500900
H       -1.22265800       4.27249900       1.23823800
H       -3.41169300       3.08292900       1.36733800
H       -3.64528500       0.78450000       0.47529900
H       -1.73849300      -0.32459800      -0.68441100
C        1.16841100       3.07638100       0.00245900
C        1.70174600       2.05281200      -0.97690500
H        1.25820000       4.10551700      -0.38793500
C        0.81480400       1.04204600      -1.10925800
C        1.96115000       2.94812000       1.31895500
C        3.01961200       2.23873400      -1.64841100
H        0.96210400       0.13635900      -1.70099300
H        2.87079900       2.62233800      -2.67279600
H        3.59652000       1.30611800      -1.72974100
H        3.63727100       2.98275200      -1.12265500
H        1.63611600       2.04245400       1.85346300
H        1.81068100       3.81158900       1.98234400
H        3.04055600       2.85071100       1.12538200
23
Properties=species:S:1:pos:R:3 Coordinates=T from=T ORCA-job=T isoindene_irc_IRC_Full=T E=T -425.602669857375=T pbc="F F F"
C       -2.55214800       2.59310400       0.90314000
C       -2.68871500       1.30488900       0.38362600
C       -1.62315800       0.67934400      -0.26853700
C       -0.41718400       1.36719800      -0.39259800
C       -0.26138000       2.64213200       0.19181800
C       -1.32520400       3.26462000       0.82595900
H       -1.22168300       4.27145900       1.24007200
H       -3.41089600       3.08225700       1.36923600
H       -3.64556000       0.78484100       0.47487500
H       -1.73940100      -0.32389900      -0.68620400
C        1.16845700       3.07606700       0.00220600
C        1.70188700       2.05227200      -0.97679700
H        1.25775500       4.10510300      -0.38924400
C        0.81454900       1.04198000      -1.10970700
C        1.96074500       2.94981800       1.31880300
C        3.02000600       2.23747500      -1.64801500
H        0.96169700       0.13635000      -1.70178300
H        2.87164500       2.62241200      -2.67203100
H        3.59574700       1.30428700      -1.73039600
H        3.63857100       2.98018500      -1.12146800
H        1.63853000       2.04291600       1.85279600
H        1.80685300       3.81258300       1.98249300
H        3.04078200       2.85635000       1.12593100
23
Properties=species:S:1:pos:R:3 Coordinates=T from=T ORCA-job=T isoindene_irc_IRC_Full=T E=T -425.602743121879=T pbc="F F F"
C       -2.55173000       2.59268700       0.90407900
C       -2.68885200       1.30501700       0.38339100
C       -1.62365700       0.67967400      -0.26954900
C       -0.41747600       1.36722500      -0.39325300
C       -0.26128300       2.64181700       0.19177300
C       -1.32468600       3.26399600       0.82688900
H       -1.22071000       4.27043800       1.24191000
H       -3.41010900       3.08158800       1.37113500
H       -3.64583500       0.78517900       0.47445100
H       -1.74030600      -0.32319100      -0.68798800
C        1.16844800       3.07598000       0.00183100
C        1.70204200       2.05169800      -0.97668700
H        1.25729600       4.10455100      -0.39049600
C        0.81432000       1.04183500      -1.11021800
C        1.96053500       2.95159800       1.31873300
C        3.02038400       2.23627300      -1.64765800
H        0.96128200       0.13639100      -1.70253400
H        2.87250700       2.62248200      -2.67121900
H        3.59497800       1.30242800      -1.73105200
H        3.63987000       2.97760100      -1.12026800
H        1.64093700       2.04334800       1.85214700
H        1.80304300       3.81350300       1.98258200
H        3.04087800       2.86199200       1.12647900
23
Properties=species:S:1:pos:R:3 Coordinates=T from=T ORCA-job=T isoindene_irc_IRC_Full=T E=T -425.602815939936=T pbc="F F F"
C       -2.55130700       2.59228100       0.90502200
C       -2.68899700       1.30513700       0.38315500
C       -1.62414900       0.68000600      -0.27056200
C       -0.41774900       1.36727800      -0.39390100
C       -0.26119000       2.64149100       0.19170900
C       -1.32418000       3.26338900       0.82783100
H       -1.21974300       4.26940000       1.24374000
H       -3.40932100       3.08091200       1.37303400
H       -3.64611300       0.78551500       0.47402800
H       -1.74121400      -0.32248500      -0.68977400
C        1.16848300       3.07570700       0.00155600
C        1.70222200       2.05120900      -0.97657500
H        1.25683700       4.10412000      -0.39179900
C        0.81404700       1.04168600      -1.11070600
C        1.96016000       2.95330600       1.31857700
C        3.02076400       2.23501600      -1.64725600
H        0.96087500       0.13641100      -1.70329300
H        2.87337400       2.62257700      -2.67043300
H        3.59419200       1.30058600      -1.73171400
H        3.64117500       2.97500900      -1.11905200
H        1.64337500       2.04382900       1.85147300
H        1.79924200       3.81446800       1.98270900
H        3.04106200       2.86763800       1.12699900
23
Properties=species:S:1:pos:R:3 Coordinates=T from=T ORCA-job=T isoindene_irc_IRC_Full=T E=T -425.602888100449=T pbc="F F F"
C       -2.55089600       2.59186700       0.90596200
C       -2.68913500       1.30525600       0.38291700
C       -1.62465600       0.68034100      -0.27156700
C       -0.41803500       1.36729300      -0.39456400
C       -0.26108900       2.64118400       0.19166600
C       -1.32367200       3.26276700       0.82876100
H       -1.21877900       4.26837500       1.24557100
H       -3.40853500       3.08023400       1.37492700
H       -3.64638900       0.78585100       0.47360700
H       -1.74211700      -0.32177600      -0.69155400
C        1.16846500       3.07563600       0.00117500
C        1.70235700       2.05062000      -0.97647400
H        1.25636300       4.10356900      -0.39305000
C        0.81381900       1.04157700      -1.11120000
C        1.95996500       2.95510000       1.31849300
C        3.02114400       2.23382100      -1.64689400
H        0.96046700       0.13644100      -1.70403800
H        2.87425700       2.62266800      -2.66960100
H        3.59340700       1.29872400      -1.73237700
H        3.64247900       2.97239900      -1.11782600
H        1.64580200       2.04427600       1.85081900
H        1.79546300       3.81536200       1.98278000
H        3.04112400       2.87328200       1.12751500
23
Properties=species:S:1:pos:R:3 Coordinates=T from=T ORCA-job=T isoindene_irc_IRC_Full=T E=T -425.602959792868=T pbc="F F F"
C       -2.55048000       2.59146300       0.90690600
C       -2.68928300       1.30536500       0.38267800
C       -1.62515100       0.68068100      -0.27257100
C       -0.41830400       1.36734400      -0.39521400
C       -0.26099900       2.64086300       0.19160000
C       -1.32317200       3.26216000       0.82969900
H       -1.21782100       4.26733800       1.24739400
H       -3.40775300       3.07955200       1.37682000
H       -3.64666700       0.78618400       0.47318600
H       -1.74302400      -0.32107500      -0.69333500
C        1.16850200       3.07532700       0.00091300
C        1.70250000       2.05012000      -0.97636700
H        1.25589200       4.10317200      -0.39436500
C        0.81356400       1.04147700      -1.11166900
C        1.95955900       2.95678600       1.31831500
C        3.02153800       2.23255700      -1.64647800
H        0.96006700       0.13644400      -1.70479300
H        2.87514200       2.62278900      -2.66880300
H        3.59259900       1.29688900      -1.73304600
H        3.64378800       2.96978000      -1.11658600
H        1.64826600       2.04479300       1.85013000
H        1.79170000       3.81631600       1.98290000
H        3.04130300       2.87892600       1.12799600
23
Properties=species:S:1:pos:R:3 Coordinates=T from=T ORCA-job=T isoindene_irc_IRC_Full=T E=T -425.603030812598=T pbc="F F F"
C       -2.55007200       2.59104500       0.90784200
C       -2.68942500       1.30548600       0.38244500
C       -1.62565700       0.68100900      -0.27357500
C       -0.41858700       1.36736600      -0.39587400
C       -0.26089800       2.64055700       0.19155500
C       -1.32267600       3.26154100       0.83062700
H       -1.21686800       4.26631100       1.24921500
H       -3.40697400       3.07886800       1.37870700
H       -3.64694200       0.78651600       0.47276700
H       -1.74392500      -0.32036200      -0.69510600
C        1.16847500       3.07525500       0.00053300
C        1.70265200       2.04956700      -0.97626700
H        1.25540500       4.10263200      -0.39561900
C        0.81331400       1.04134200      -1.11216700
C        1.95936500       2.95858300       1.31821000
C        3.02191300       2.23135700      -1.64610700
H        0.95966400       0.13647900      -1.70552200
H        2.87604400       2.62290400      -2.66795400
H        3.59179800       1.29502600      -1.73371600
H        3.64509700       2.96714800      -1.11533200
H        1.65071400       2.04526300       1.84946900
H        1.78796000       3.81718800       1.98295600
H        3.04134000       2.88456300       1.12847700
23
Properties=species:S:1:pos:R:3 Coordinates=T from=T ORCA-job=T isoindene_irc_IRC_Full=T E=T -425.603101461226=T pbc="F F F"
C       -2.54966100       2.59063500       0.90878400
C       -2.68956000       1.30559400       0.38220200
C       -1.62614900       0.68136400      -0.27457300
C       -0.41888500       1.36742200      -0.39651100
C       -0.26084300       2.64023300       0.19149900
C       -1.32216100       3.26091900       0.83155000
H       -1.21591900       4.26527600       1.25103600
H       -3.40619700       3.07817900       1.38059800
H       -3.64722800       0.78684400       0.47234900
H       -1.74483300      -0.31966200      -0.69688600
C        1.16851500       3.07500100       0.00025500
C        1.70276300       2.04903100      -0.97617000
H        1.25491700       4.10221500      -0.39692800
C        0.81309600       1.04126800      -1.11264200
C        1.95898800       2.96028200       1.31802100
C        3.02230600       2.23011300      -1.64568400
H        0.95926600       0.13648200      -1.70626600
H        2.87695100       2.62304500      -2.66713400
H        3.59097800       1.29317600      -1.73439300
H        3.64641000       2.96449800      -1.11406700
H        1.65319800       2.04579500       1.84877700
H        1.78422400       3.81812000       1.98305900
H        3.04147800       2.89021400       1.12892900
23
Properties=species:S:1:pos:R:3 Coordinates=T from=T ORCA-job=T isoindene_irc_IRC_Full=T E=T -425.603171367157=T pbc="F F F"
C       -2.54926200       2.59021900       0.90972000
C       -2.68971200       1.30570600       0.38197000
C       -1.62666700       0.68168500      -0.27557400
C       -0.41914800       1.36742900      -0.39718900
C       -0.26071900       2.63994400       0.19145400
C       -1.32168600       3.26030700       0.83248300
H       -1.21497300       4.26424700       1.25284900
H       -3.40542000       3.07748700       1.38247800
H       -3.64750000       0.78717500       0.47193200
H       -1.74573100      -0.31894400      -0.69865000
C        1.16846200       3.07494400      -0.00014600
C        1.70291400       2.04849000      -0.97607100
H        1.25441700       4.10166900      -0.39817800
C        0.81282500       1.04113900      -1.11312800
C        1.95882500       2.96210200       1.31791700
C        3.02268300       2.22891000      -1.64531700
H        0.95886800       0.13651500      -1.70698500
H        2.87787400       2.62318100      -2.66626000
H        3.59015600       1.29131600      -1.73507100
H        3.64772500       2.96184200      -1.11278500
H        1.65566300       2.04628200       1.84811300
H        1.78052300       3.81896100       1.98309000
H        3.04147200       2.89584700       1.12937900
23
Properties=species:S:1:pos:R:3 Coordinates=T from=T ORCA-job=T isoindene_irc_IRC_Full=T E=T -425.603240798743=T pbc="F F F"
C       -2.54884800       2.58979500       0.91065000
C       -2.68986100       1.30582600       0.38173900
C       -1.62714900       0.68202700      -0.27657600
C       -0.41944800       1.36750300      -0.39781400
C       -0.26066300       2.63960900       0.19138800
C       -1.32118900       3.25969500       0.83340900
H       -1.21403600       4.26321000       1.25465800
H       -3.40465400       3.07679500       1.38436300
H       -3.64778300       0.78749900       0.47151600
H       -1.74663600      -0.31824000      -0.70041900
C        1.16849600       3.07468300      -0.00041500
C        1.70305900       2.04800500      -0.97597800
H        1.25391600       4.10126800      -0.39949000
C        0.81257700       1.04101900      -1.11361600
C        1.95844700       2.96379400       1.31770500
C        3.02306300       2.22766400      -1.64488000
H        0.95847500       0.13653000      -1.70770800
H        2.87880000       2.62334900      -2.66542500
H        3.58932100       1.28946600      -1.73575700
H        3.64904200       2.95917000      -1.11149100
H        1.65816500       2.04684200       1.84741400
H        1.77683400       3.81987400       1.98317800
H        3.04158600       2.90148400       1.12979300
23
Properties=species:S:1:pos:R:3 Coordinates=T from=T ORCA-job=T isoindene_irc_IRC_Full=T E=T -425.603309662560=T pbc="F F F"
C       -2.54845400       2.58937600       0.91158500
C       -2.69001000       1.30593700       0.38150700
C       -1.62766400       0.68235400      -0.27757300
C       -0.41972200       1.36752100      -0.39848300
C       -0.26055400       2.63931800       0.19134500
C       -1.32071300       3.25907800       0.83433500
H       -1.21310000       4.26217800       1.25646500
H       -3.40388100       3.07609500       1.38623900
H       -3.64805900       0.78782500       0.47110100
H       -1.74753400      -0.31752400      -0.70218100
C        1.16844400       3.07461100      -0.00080800
C        1.70319800       2.04747400      -0.97587900
H        1.25340200       4.10074200      -0.40075000
C        0.81231100       1.04089900      -1.11410200
C        1.95826100       2.96560200       1.31757700
C        3.02344700       2.22645300      -1.64449900
H        0.95808100       0.13655700      -1.70842100
H        2.87974300       2.62351200      -2.66453600
H        3.58847800       1.28760600      -1.73644400
H        3.65036300       2.95648200      -1.11018100
H        1.66065600       2.04736200       1.84673900
H        1.77316700       3.82070900       1.98320200
H        3.04157300       2.90711900       1.13020600
23
Properties=species:S:1:pos:R:3 Coordinates=T from=T ORCA-job=T isoindene_irc_IRC_Full=T E=T -425.603378044679=T pbc="F F F"
C       -2.54804700       2.58895500       0.91251800
C       -2.69016000       1.30604300       0.38127200
C       -1.62815200       0.68270500      -0.27856900
C       -0.42001900       1.36759200      -0.39911200
C       -0.26050900       2.63899100       0.19128400
C       -1.32021400       3.25846000       0.83525500
H       -1.21217000       4.26114000       1.25827100
H       -3.40311900       3.07539400       1.38812200
H       -3.64834300       0.78814700       0.47068700
H       -1.74843900      -0.31682200      -0.70394900
C        1.16848000       3.07434300      -0.00107200
C        1.70331800       2.04697600      -0.97579400
H        1.25288700       4.10035900      -0.40207100
C        0.81207700       1.04081400      -1.11457700
C        1.95787400       2.96729000       1.31734500
C        3.02382900       2.22520800      -1.64404700
H        0.95769200       0.13656400      -1.70914000
H        2.88068900       2.62370500      -2.66368400
H        3.58762400       1.28575200      -1.73714100
H        3.65168700       2.95377800      -1.10886200
H        1.66318000       2.04795400       1.84603000
H        1.76951000       3.82161100       1.98328000
H        3.04167000       2.91275900       1.13058700
23
Properties=species:S:1:pos:R:3 Coordinates=T from=T ORCA-job=T isoindene_irc_IRC_Full=T E=T -425.603445722187=T pbc="F F F"
C       -2.54766100       2.58853300       0.91345000
C       -2.69030900       1.30615200       0.38104000
C       -1.62866700       0.68303200      -0.27956100
C       -0.42029600       1.36760700      -0.39978000
C       -0.26040500       2.63870700       0.19124400
C       -1.31974200       3.25784000       0.83617300
H       -1.21124500       4.26011000       1.26007000
H       -3.40235200       3.07468800       1.38999100
H       -3.64862000       0.78846800       0.47027500
H       -1.74933500      -0.31610500      -0.70570300
C        1.16842000       3.07428700      -0.00147600
C        1.70344300       2.04644900      -0.97569600
H        1.25235900       4.09983300      -0.40332700
C        0.81181300       1.04070200      -1.11506200
C        1.95770300       2.96910400       1.31721000
C        3.02421800       2.22400000      -1.64366300
H        0.95730300       0.13659200      -1.70984100
H        2.88165100       2.62389300      -2.66277300
H        3.58676200       1.28389400      -1.73783700
H        3.65301000       2.95106600      -1.10752500
H        1.66568500       2.04849800       1.84535100
H        1.76589100       3.82242200       1.98328400
H        3.04162500       2.91837900       1.13096500
23
Properties=species:S:1:pos:R:3 Coordinates=T from=T ORCA-job=T isoindene_irc_IRC_Full=T E=T -425.603513003111=T pbc="F F F"
C       -2.54724800       2.58809400       0.91437000
C       -2.69046300       1.30627200       0.38081500
C       -1.62915500       0.68336900      -0.28056100
C       -0.42059700       1.36768500      -0.40040600
C       -0.26033800       2.63836300       0.19116700
C       -1.31927800       3.25724300       0.83710900
H       -1.21032400       4.25906200       1.26186500
H       -3.40159700       3.07398300       1.39187100
H       -3.64890600       0.78878400       0.46986300
H       -1.75023700      -0.31539200      -0.70746300
C        1.16843100       3.07407000      -0.00175700
C        1.70360200       2.04598000      -0.97562000
H        1.25183000       4.09942300      -0.40463800
C        0.81154600       1.04057700      -1.11554800
C        1.95737400       2.97083400       1.31696500
C        3.02457600       2.22276500      -1.64320900
H        0.95691700       0.13661200      -1.71054300
H        2.88262000       2.62410800      -2.66189200
H        3.58589600       1.28202600      -1.73854500
H        3.65434300       2.94833600      -1.10617400
H        1.66822000       2.04909200       1.84465100
H        1.76227500       3.82329500       1.98333500
H        3.04166400       2.92401400       1.13131700
23
Properties=species:S:1:pos:R:3 Coordinates=T from=T ORCA-job=T isoindene_irc_IRC_Full=T E=T -425.603579597829=T pbc="F F F"
C       -2.54687900       2.58767700       0.91530900
C       -2.69061700       1.30637300       0.38058200
C       -1.62967300       0.68369800      -0.28155200
C       -0.42087200       1.36769200      -0.40108200
C       -0.26024400       2.63810200       0.19114400
C       -1.31879600       3.25660700       0.83801300
H       -1.20940700       4.25803700       1.26366200
H       -3.40083000       3.07326500       1.39373300
H       -3.64918300       0.78910300       0.46945300
H       -1.75113200      -0.31467500      -0.70921400
C        1.16836000       3.07402400      -0.00218300
C        1.70369600       2.04544900      -0.97551300
H        1.25128600       4.09889700      -0.40589600
C        0.81129100       1.04048100      -1.11603100
C        1.95720400       2.97264400       1.31683600
C        3.02498900       2.22155100      -1.64282800
H        0.95653100       0.13663900      -1.71123700
H        2.88360200       2.62432000      -2.66095700
H        3.58500900       1.28017600      -1.73925200
H        3.65567000       2.94559100      -1.10481100
H        1.67074700       2.04967300       1.84396100
H        1.75869500       3.82408900       1.98332100
H        3.04159600       2.92963100       1.13166000
23
Properties=species:S:1:pos:R:3 Coordinates=T from=T ORCA-job=T isoindene_irc_IRC_Full=T E=T -425.603645687936=T pbc="F F F"
C       -2.54647100       2.58725200       0.91623300
C       -2.69076400       1.30646800       0.38034600
C       -1.63016900       0.68405200      -0.28253600
C       -0.42117300       1.36777100      -0.40170600
C       -0.26020800       2.63776700       0.19107600
C       -1.31832200       3.25599600       0.83893300
H       -1.20849800       4.25699300       1.26545000
H       -3.40008300       3.07255300       1.39560600
H       -3.64947000       0.78941500       0.46904500
H       -1.75203300      -0.31397100      -0.71097000
C        1.16838400       3.07378200      -0.00244000
C        1.70382200       2.04495900      -0.97545000
H        1.25074400       4.09852200      -0.40721800
C        0.81105100       1.04041000      -1.11649900
C        1.95685000       2.97435600       1.31655600
C        3.02534700       2.22032000      -1.64235100
H        0.95615100       0.13664300      -1.71193800
H        2.88458900       2.62456600      -2.66006300
H        3.58412400       1.27830800      -1.73997100
H        3.65700600       2.94283100      -1.10343500
H        1.67329800       2.05030100       1.84325300
H        1.75512700       3.82495800       1.98336700
H        3.04162900       2.93524800       1.13197200
23
Properties=species:S:1:pos:R:3 Coordinates=T from=T ORCA-job=T isoindene_irc_IRC_Full=T E=T -425.603711215566=T pbc="F F F"
C       -2.54610300       2.58681400       0.91716000
C       -2.69092300       1.30658100       0.38012200
C       -1.63067800       0.68437900      -0.28352900
C       -0.42145700       1.36778800      -0.40237300
C       -0.26010700       2.63749100       0.19104000
C       -1.31786000       3.25537300       0.83984600
H       -1.20759000       4.25596100       1.26724000
H       -3.39932400       3.07183000       1.39746700
H       -3.64974800       0.78972900       0.46863600
H       -1.75292800      -0.31325100      -0.71271800
C        1.16830800       3.07373300      -0.00286100
C        1.70392900       2.04445800      -0.97534700
H        1.25018700       4.09800700      -0.40848100
C        0.81077900       1.04029700      -1.11698600
C        1.95667900       2.97616700       1.31640700
C        3.02575300       2.21910300      -1.64195600
H        0.95576800       0.13667500      -1.71262000
H        2.88559200       2.62480600      -2.65910900
H        3.58321900       1.27645300      -1.74069100
H        3.65834100       2.94005600      -1.10204100
H        1.67584400       2.05091300       1.84255800
H        1.75158900       3.82574300       1.98334000
H        3.04154000       2.94085900       1.13228000
23
Properties=species:S:1:pos:R:3 Coordinates=T from=T ORCA-job=T isoindene_irc_IRC_Full=T E=T -425.603776218150=T pbc="F F F"
C       -2.54569800       2.58639000       0.91808500
C       -2.69107500       1.30667300       0.37988600
C       -1.63117600       0.68472800      -0.28451400
C       -0.42175900       1.36787300      -0.40299500
C       -0.26007700       2.63716200       0.19097600
C       -1.31739000       3.25475600       0.84076000
H       -1.20669000       4.25491500       1.26902300
H       -3.39858000       3.07110900       1.39933500
H       -3.65003600       0.79003600       0.46822900
H       -1.75382800      -0.31254200      -0.71447000
C        1.16832200       3.07350300      -0.00312300
C        1.70404700       2.04397100      -0.97528600
H        1.24963000       4.09763200      -0.40980500
C        0.81054000       1.04022800      -1.11745700
C        1.95633600       2.97788800       1.31611300
C        3.02611300       2.21787200      -1.64147400
H        0.95539100       0.13668100      -1.71331300
H        2.88660100       2.62507800      -2.65819200
H        3.58231400       1.27458200      -1.74142300
H        3.65968400       2.93726400      -1.10063600
H        1.67841200       2.05156800       1.84184800
H        1.74806300       3.82659700       1.98336900
H        3.04154500       2.94647200       1.13255900
23
Properties=species:S:1:pos:R:3 Coordinates=T from=T ORCA-job=T product=T pbc="F F F"
C       -2.50798238       2.48561239       1.04529846
C       -2.72031838       1.28991532       0.35629672
C       -1.70713832       0.72147048      -0.41849039
C       -0.47586493       1.37212265      -0.49348052
C       -0.26526309       2.58248041       0.19673793
C       -1.27359020       3.14080748       0.96802594
H       -1.11440198       4.07820961       1.50834460
H       -3.31229379       2.91312981       1.64869572
H       -3.69066283       0.79204574       0.42632326
H       -1.87708124      -0.21613152      -0.95371881
C        1.14129999       3.05843419      -0.06315866
C        1.69751377       1.97848486      -0.96999791
H        1.10180454       4.00537577      -0.63774302
C        0.75644820       1.03614846      -1.20027865
C        1.96107428       3.29714282       1.20359743
C        3.08747321       2.01853028      -1.49813777
H        0.88809480       0.15111958      -1.82648807
H        3.27818147       2.95246734      -2.05373423
H        3.28674767       1.17363107      -2.17187672
H        3.82955871       1.98316953      -0.68225602
H        2.03611591       2.37145235       1.79428353
H        1.49148065       4.06573395       1.83517910
H        2.97949181       3.63908451       0.96407349
