23
Properties=species:S:1:pos:R:3 Coordinates=T from=T ORCA-job=T reactant_2=T pbc="F F F"
C       -2.81578880       2.71939196       0.40597653
C       -2.75306802       1.29879637       0.12494354
C       -1.57543956       0.67007496      -0.12725319
C       -0.35564337       1.43708095      -0.11453116
C       -0.41953215       2.88547230       0.17378133
C       -1.69985337       3.49383364       0.43197139
H       -1.76038527       4.56397505       0.64444557
H       -3.79415372       3.16615899       0.60025014
H       -3.68677075       0.73077207       0.11837866
H       -1.54169132      -0.40154984      -0.33807153
C        0.83993724       3.39615214       0.13487848
C        1.82185831       2.30200252      -0.18701817
H        1.13022182       4.43459181       0.30501970
C        0.94166849       1.08930300      -0.32657184
C        2.83234595       2.11612229       0.95847710
C        2.56148745       2.59927910      -1.50322929
H        1.32235112       0.09373371      -0.56213839
H        1.84979612       2.73365377      -2.33076143
H        3.24183470       1.77249062      -1.76025486
H        3.16292499       3.51688105      -1.40914717
H        2.31566211       1.90230302       1.90547217
H        3.43825008       3.02608549       1.09016399
H        3.51580407       1.28144540       0.73822666
