23
Properties=species:S:1:pos:R:3 Coordinates=T from=T ORCA-job=T ts_2=T pbc="F F F"
C       -2.66439006       2.65299207       0.78745998
C       -2.67887405       1.28747391       0.38852883
C       -1.56970667       0.67461786      -0.14641427
C       -0.37799043       1.42925813      -0.32382039
C       -0.37079635       2.81148083       0.09023386
C       -1.52125738       3.40795810       0.65254943
H       -1.50289375       4.45626539       0.96302769
H       -3.57070365       3.09792166       1.20441076
H       -3.60062127       0.71302764       0.51535520
H       -1.60258355      -0.37766603      -0.43967208
C        0.92456571       3.31753506      -0.15347634
C        1.72786412       2.23585109      -0.72575816
H        1.22817414       4.36380166      -0.12613291
C        0.88824740       1.09215485      -0.82943543
C        2.18463151       2.44443140       1.05085740
C        2.96854451       2.45002472      -1.54037911
H        1.19994619       0.12279719      -1.21659289
H        2.69452545       2.65557302      -2.58626430
H        3.60551208       1.55243186      -1.53156185
H        3.56503062       3.29922665      -1.17492649
H        1.49069906       1.84916547       1.65040377
H        2.42620004       3.40209099       1.53339212
H        3.13306635       1.90539648       0.90501519
